ITEM: TIMESTEP
0          0
ITEM: NUMBER OF ATOMS
8000
ITEM: BOX BOUNDS
0 10
0 10
0 20
ITEM: ATOMS id type x y z
1 1 0 0 0 
2 1 0 0.5 0.5 
3 1 0.5 0 0.5 
4 1 0.5 0.5 0 
5 1 1 0 0 
6 1 1 0.5 0.5 
7 1 1.5 0 0.5 
8 1 1.5 0.5 0 
9 1 2 0 0 
10 1 2 0.5 0.5 
11 1 2.5 0 0.5 
12 1 2.5 0.5 0 
13 1 3 0 0 
14 1 3 0.5 0.5 
15 1 3.5 0 0.5 
16 1 3.5 0.5 0 
17 1 4 0 0 
18 2 4 0.5 0.5 
19 1 4.5 0 0.5 
20 1 4.5 0.5 0 
21 1 5 0 0 
22 1 5 0.5 0.5 
23 1 5.5 0 0.5 
24 1 5.5 0.5 0 
25 1 6 0 0 
26 1 6 0.5 0.5 
27 1 6.5 0 0.5 
28 1 6.5 0.5 0 
29 1 7 0 0 
30 1 7 0.5 0.5 
31 1 7.5 0 0.5 
32 1 7.5 0.5 0 
33 1 8 0 0 
34 1 8 0.5 0.5 
35 1 8.5 0 0.5 
36 1 8.5 0.5 0 
37 1 9 0 0 
38 1 9 0.5 0.5 
39 1 9.5 0 0.5 
40 1 9.5 0.5 0 
41 1 0 1 0 
42 1 0 1.5 0.5 
43 1 0.5 1 0.5 
44 1 0.5 1.5 0 
45 1 1 1 0 
46 1 1 1.5 0.5 
47 1 1.5 1 0.5 
48 1 1.5 1.5 0 
49 1 2 1 0 
50 1 2 1.5 0.5 
51 1 2.5 1 0.5 
52 1 2.5 1.5 0 
53 1 3 1 0 
54 1 3 1.5 0.5 
55 1 3.5 1 0.5 
56 1 3.5 1.5 0 
57 1 4 1 0 
58 1 4 1.5 0.5 
59 1 4.5 1 0.5 
60 1 4.5 1.5 0 
61 1 5 1 0 
62 1 5 1.5 0.5 
63 1 5.5 1 0.5 
64 1 5.5 1.5 0 
65 1 6 1 0 
66 1 6 1.5 0.5 
67 1 6.5 1 0.5 
68 1 6.5 1.5 0 
69 1 7 1 0 
70 2 7 1.5 0.5 
71 1 7.5 1 0.5 
72 1 7.5 1.5 0 
73 1 8 1 0 
74 1 8 1.5 0.5 
75 1 8.5 1 0.5 
76 1 8.5 1.5 0 
77 1 9 1 0 
78 1 9 1.5 0.5 
79 1 9.5 1 0.5 
80 1 9.5 1.5 0 
81 1 0 2 0 
82 1 0 2.5 0.5 
83 1 0.5 2 0.5 
84 1 0.5 2.5 0 
85 1 1 2 0 
86 1 1 2.5 0.5 
87 1 1.5 2 0.5 
88 1 1.5 2.5 0 
89 1 2 2 0 
90 1 2 2.5 0.5 
91 1 2.5 2 0.5 
92 1 2.5 2.5 0 
93 1 3 2 0 
94 1 3 2.5 0.5 
95 1 3.5 2 0.5 
96 1 3.5 2.5 0 
97 1 4 2 0 
98 1 4 2.5 0.5 
99 1 4.5 2 0.5 
100 1 4.5 2.5 0 
101 1 5 2 0 
102 1 5 2.5 0.5 
103 1 5.5 2 0.5 
104 1 5.5 2.5 0 
105 1 6 2 0 
106 1 6 2.5 0.5 
107 1 6.5 2 0.5 
108 1 6.5 2.5 0 
109 1 7 2 0 
110 1 7 2.5 0.5 
111 1 7.5 2 0.5 
112 1 7.5 2.5 0 
113 1 8 2 0 
114 1 8 2.5 0.5 
115 1 8.5 2 0.5 
116 1 8.5 2.5 0 
117 1 9 2 0 
118 1 9 2.5 0.5 
119 1 9.5 2 0.5 
120 1 9.5 2.5 0 
121 1 0 3 0 
122 1 0 3.5 0.5 
123 1 0.5 3 0.5 
124 1 0.5 3.5 0 
125 1 1 3 0 
126 1 1 3.5 0.5 
127 1 1.5 3 0.5 
128 1 1.5 3.5 0 
129 1 2 3 0 
130 1 2 3.5 0.5 
131 1 2.5 3 0.5 
132 1 2.5 3.5 0 
133 1 3 3 0 
134 1 3 3.5 0.5 
135 1 3.5 3 0.5 
136 1 3.5 3.5 0 
137 1 4 3 0 
138 1 4 3.5 0.5 
139 1 4.5 3 0.5 
140 1 4.5 3.5 0 
141 1 5 3 0 
142 1 5 3.5 0.5 
143 1 5.5 3 0.5 
144 1 5.5 3.5 0 
145 1 6 3 0 
146 1 6 3.5 0.5 
147 1 6.5 3 0.5 
148 1 6.5 3.5 0 
149 1 7 3 0 
150 2 7 3.5 0.5 
151 1 7.5 3 0.5 
152 1 7.5 3.5 0 
153 1 8 3 0 
154 1 8 3.5 0.5 
155 1 8.5 3 0.5 
156 1 8.5 3.5 0 
157 1 9 3 0 
158 1 9 3.5 0.5 
159 1 9.5 3 0.5 
160 1 9.5 3.5 0 
161 1 0 4 0 
162 1 0 4.5 0.5 
163 1 0.5 4 0.5 
164 1 0.5 4.5 0 
165 1 1 4 0 
166 1 1 4.5 0.5 
167 1 1.5 4 0.5 
168 1 1.5 4.5 0 
169 1 2 4 0 
170 1 2 4.5 0.5 
171 1 2.5 4 0.5 
172 1 2.5 4.5 0 
173 1 3 4 0 
174 1 3 4.5 0.5 
175 1 3.5 4 0.5 
176 1 3.5 4.5 0 
177 1 4 4 0 
178 1 4 4.5 0.5 
179 1 4.5 4 0.5 
180 1 4.5 4.5 0 
181 1 5 4 0 
182 1 5 4.5 0.5 
183 1 5.5 4 0.5 
184 1 5.5 4.5 0 
185 1 6 4 0 
186 1 6 4.5 0.5 
187 1 6.5 4 0.5 
188 1 6.5 4.5 0 
189 1 7 4 0 
190 1 7 4.5 0.5 
191 1 7.5 4 0.5 
192 1 7.5 4.5 0 
193 1 8 4 0 
194 1 8 4.5 0.5 
195 1 8.5 4 0.5 
196 1 8.5 4.5 0 
197 1 9 4 0 
198 2 9 4.5 0.5 
199 1 9.5 4 0.5 
200 1 9.5 4.5 0 
201 1 0 5 0 
202 1 0 5.5 0.5 
203 1 0.5 5 0.5 
204 1 0.5 5.5 0 
205 1 1 5 0 
206 1 1 5.5 0.5 
207 1 1.5 5 0.5 
208 1 1.5 5.5 0 
209 1 2 5 0 
210 1 2 5.5 0.5 
211 1 2.5 5 0.5 
212 1 2.5 5.5 0 
213 1 3 5 0 
214 2 3 5.5 0.5 
215 1 3.5 5 0.5 
216 1 3.5 5.5 0 
217 1 4 5 0 
218 1 4 5.5 0.5 
219 1 4.5 5 0.5 
220 1 4.5 5.5 0 
221 1 5 5 0 
222 1 5 5.5 0.5 
223 1 5.5 5 0.5 
224 1 5.5 5.5 0 
225 1 6 5 0 
226 1 6 5.5 0.5 
227 1 6.5 5 0.5 
228 1 6.5 5.5 0 
229 1 7 5 0 
230 1 7 5.5 0.5 
231 1 7.5 5 0.5 
232 1 7.5 5.5 0 
233 1 8 5 0 
234 1 8 5.5 0.5 
235 1 8.5 5 0.5 
236 1 8.5 5.5 0 
237 1 9 5 0 
238 1 9 5.5 0.5 
239 1 9.5 5 0.5 
240 1 9.5 5.5 0 
241 1 0 6 0 
242 1 0 6.5 0.5 
243 1 0.5 6 0.5 
244 1 0.5 6.5 0 
245 1 1 6 0 
246 1 1 6.5 0.5 
247 1 1.5 6 0.5 
248 1 1.5 6.5 0 
249 1 2 6 0 
250 1 2 6.5 0.5 
251 1 2.5 6 0.5 
252 1 2.5 6.5 0 
253 1 3 6 0 
254 1 3 6.5 0.5 
255 1 3.5 6 0.5 
256 1 3.5 6.5 0 
257 1 4 6 0 
258 1 4 6.5 0.5 
259 1 4.5 6 0.5 
260 1 4.5 6.5 0 
261 1 5 6 0 
262 1 5 6.5 0.5 
263 2 5.5 6 0.5 
264 1 5.5 6.5 0 
265 1 6 6 0 
266 1 6 6.5 0.5 
267 1 6.5 6 0.5 
268 1 6.5 6.5 0 
269 1 7 6 0 
270 1 7 6.5 0.5 
271 1 7.5 6 0.5 
272 1 7.5 6.5 0 
273 1 8 6 0 
274 1 8 6.5 0.5 
275 1 8.5 6 0.5 
276 1 8.5 6.5 0 
277 1 9 6 0 
278 1 9 6.5 0.5 
279 1 9.5 6 0.5 
280 1 9.5 6.5 0 
281 1 0 7 0 
282 1 0 7.5 0.5 
283 1 0.5 7 0.5 
284 1 0.5 7.5 0 
285 1 1 7 0 
286 1 1 7.5 0.5 
287 1 1.5 7 0.5 
288 1 1.5 7.5 0 
289 1 2 7 0 
290 1 2 7.5 0.5 
291 1 2.5 7 0.5 
292 1 2.5 7.5 0 
293 1 3 7 0 
294 1 3 7.5 0.5 
295 1 3.5 7 0.5 
296 1 3.5 7.5 0 
297 1 4 7 0 
298 1 4 7.5 0.5 
299 1 4.5 7 0.5 
300 1 4.5 7.5 0 
301 1 5 7 0 
302 1 5 7.5 0.5 
303 1 5.5 7 0.5 
304 1 5.5 7.5 0 
305 1 6 7 0 
306 1 6 7.5 0.5 
307 1 6.5 7 0.5 
308 1 6.5 7.5 0 
309 1 7 7 0 
310 1 7 7.5 0.5 
311 1 7.5 7 0.5 
312 1 7.5 7.5 0 
313 1 8 7 0 
314 1 8 7.5 0.5 
315 1 8.5 7 0.5 
316 1 8.5 7.5 0 
317 1 9 7 0 
318 1 9 7.5 0.5 
319 1 9.5 7 0.5 
320 1 9.5 7.5 0 
321 1 0 8 0 
322 1 0 8.5 0.5 
323 1 0.5 8 0.5 
324 1 0.5 8.5 0 
325 1 1 8 0 
326 1 1 8.5 0.5 
327 1 1.5 8 0.5 
328 1 1.5 8.5 0 
329 1 2 8 0 
330 1 2 8.5 0.5 
331 1 2.5 8 0.5 
332 1 2.5 8.5 0 
333 1 3 8 0 
334 1 3 8.5 0.5 
335 1 3.5 8 0.5 
336 1 3.5 8.5 0 
337 1 4 8 0 
338 1 4 8.5 0.5 
339 1 4.5 8 0.5 
340 1 4.5 8.5 0 
341 1 5 8 0 
342 1 5 8.5 0.5 
343 1 5.5 8 0.5 
344 1 5.5 8.5 0 
345 1 6 8 0 
346 1 6 8.5 0.5 
347 1 6.5 8 0.5 
348 1 6.5 8.5 0 
349 1 7 8 0 
350 1 7 8.5 0.5 
351 1 7.5 8 0.5 
352 1 7.5 8.5 0 
353 1 8 8 0 
354 1 8 8.5 0.5 
355 1 8.5 8 0.5 
356 1 8.5 8.5 0 
357 1 9 8 0 
358 1 9 8.5 0.5 
359 1 9.5 8 0.5 
360 1 9.5 8.5 0 
361 1 0 9 0 
362 1 0 9.5 0.5 
363 1 0.5 9 0.5 
364 1 0.5 9.5 0 
365 1 1 9 0 
366 1 1 9.5 0.5 
367 1 1.5 9 0.5 
368 1 1.5 9.5 0 
369 1 2 9 0 
370 1 2 9.5 0.5 
371 1 2.5 9 0.5 
372 1 2.5 9.5 0 
373 1 3 9 0 
374 1 3 9.5 0.5 
375 1 3.5 9 0.5 
376 1 3.5 9.5 0 
377 1 4 9 0 
378 1 4 9.5 0.5 
379 1 4.5 9 0.5 
380 1 4.5 9.5 0 
381 1 5 9 0 
382 2 5 9.5 0.5 
383 1 5.5 9 0.5 
384 1 5.5 9.5 0 
385 1 6 9 0 
386 1 6 9.5 0.5 
387 1 6.5 9 0.5 
388 1 6.5 9.5 0 
389 1 7 9 0 
390 1 7 9.5 0.5 
391 1 7.5 9 0.5 
392 1 7.5 9.5 0 
393 1 8 9 0 
394 1 8 9.5 0.5 
395 2 8.5 9 0.5 
396 1 8.5 9.5 0 
397 1 9 9 0 
398 1 9 9.5 0.5 
399 1 9.5 9 0.5 
400 1 9.5 9.5 0 
401 1 0 0 1 
402 1 0 0.5 1.5 
403 1 0.5 0 1.5 
404 1 0.5 0.5 1 
405 1 1 0 1 
406 1 1 0.5 1.5 
407 1 1.5 0 1.5 
408 1 1.5 0.5 1 
409 1 2 0 1 
410 1 2 0.5 1.5 
411 1 2.5 0 1.5 
412 1 2.5 0.5 1 
413 1 3 0 1 
414 1 3 0.5 1.5 
415 1 3.5 0 1.5 
416 1 3.5 0.5 1 
417 1 4 0 1 
418 2 4 0.5 1.5 
419 1 4.5 0 1.5 
420 1 4.5 0.5 1 
421 1 5 0 1 
422 1 5 0.5 1.5 
423 1 5.5 0 1.5 
424 2 5.5 0.5 1 
425 1 6 0 1 
426 1 6 0.5 1.5 
427 1 6.5 0 1.5 
428 1 6.5 0.5 1 
429 1 7 0 1 
430 1 7 0.5 1.5 
431 1 7.5 0 1.5 
432 1 7.5 0.5 1 
433 1 8 0 1 
434 1 8 0.5 1.5 
435 1 8.5 0 1.5 
436 2 8.5 0.5 1 
437 1 9 0 1 
438 1 9 0.5 1.5 
439 1 9.5 0 1.5 
440 1 9.5 0.5 1 
441 1 0 1 1 
442 1 0 1.5 1.5 
443 1 0.5 1 1.5 
444 1 0.5 1.5 1 
445 1 1 1 1 
446 1 1 1.5 1.5 
447 1 1.5 1 1.5 
448 1 1.5 1.5 1 
449 1 2 1 1 
450 1 2 1.5 1.5 
451 1 2.5 1 1.5 
452 1 2.5 1.5 1 
453 1 3 1 1 
454 1 3 1.5 1.5 
455 2 3.5 1 1.5 
456 1 3.5 1.5 1 
457 1 4 1 1 
458 1 4 1.5 1.5 
459 1 4.5 1 1.5 
460 1 4.5 1.5 1 
461 1 5 1 1 
462 1 5 1.5 1.5 
463 1 5.5 1 1.5 
464 1 5.5 1.5 1 
465 1 6 1 1 
466 1 6 1.5 1.5 
467 1 6.5 1 1.5 
468 1 6.5 1.5 1 
469 1 7 1 1 
470 1 7 1.5 1.5 
471 1 7.5 1 1.5 
472 1 7.5 1.5 1 
473 1 8 1 1 
474 1 8 1.5 1.5 
475 2 8.5 1 1.5 
476 1 8.5 1.5 1 
477 1 9 1 1 
478 1 9 1.5 1.5 
479 1 9.5 1 1.5 
480 1 9.5 1.5 1 
481 1 0 2 1 
482 1 0 2.5 1.5 
483 1 0.5 2 1.5 
484 1 0.5 2.5 1 
485 2 1 2 1 
486 1 1 2.5 1.5 
487 1 1.5 2 1.5 
488 1 1.5 2.5 1 
489 1 2 2 1 
490 1 2 2.5 1.5 
491 1 2.5 2 1.5 
492 1 2.5 2.5 1 
493 1 3 2 1 
494 1 3 2.5 1.5 
495 1 3.5 2 1.5 
496 1 3.5 2.5 1 
497 1 4 2 1 
498 1 4 2.5 1.5 
499 2 4.5 2 1.5 
500 1 4.5 2.5 1 
501 1 5 2 1 
502 1 5 2.5 1.5 
503 1 5.5 2 1.5 
504 1 5.5 2.5 1 
505 1 6 2 1 
506 1 6 2.5 1.5 
507 1 6.5 2 1.5 
508 1 6.5 2.5 1 
509 1 7 2 1 
510 1 7 2.5 1.5 
511 1 7.5 2 1.5 
512 1 7.5 2.5 1 
513 1 8 2 1 
514 1 8 2.5 1.5 
515 1 8.5 2 1.5 
516 1 8.5 2.5 1 
517 1 9 2 1 
518 2 9 2.5 1.5 
519 1 9.5 2 1.5 
520 1 9.5 2.5 1 
521 1 0 3 1 
522 1 0 3.5 1.5 
523 1 0.5 3 1.5 
524 1 0.5 3.5 1 
525 1 1 3 1 
526 1 1 3.5 1.5 
527 1 1.5 3 1.5 
528 1 1.5 3.5 1 
529 1 2 3 1 
530 1 2 3.5 1.5 
531 1 2.5 3 1.5 
532 2 2.5 3.5 1 
533 1 3 3 1 
534 1 3 3.5 1.5 
535 1 3.5 3 1.5 
536 1 3.5 3.5 1 
537 1 4 3 1 
538 1 4 3.5 1.5 
539 1 4.5 3 1.5 
540 1 4.5 3.5 1 
541 1 5 3 1 
542 1 5 3.5 1.5 
543 1 5.5 3 1.5 
544 1 5.5 3.5 1 
545 1 6 3 1 
546 1 6 3.5 1.5 
547 1 6.5 3 1.5 
548 1 6.5 3.5 1 
549 1 7 3 1 
550 1 7 3.5 1.5 
551 1 7.5 3 1.5 
552 1 7.5 3.5 1 
553 1 8 3 1 
554 2 8 3.5 1.5 
555 1 8.5 3 1.5 
556 1 8.5 3.5 1 
557 1 9 3 1 
558 1 9 3.5 1.5 
559 1 9.5 3 1.5 
560 1 9.5 3.5 1 
561 1 0 4 1 
562 1 0 4.5 1.5 
563 1 0.5 4 1.5 
564 1 0.5 4.5 1 
565 1 1 4 1 
566 1 1 4.5 1.5 
567 2 1.5 4 1.5 
568 1 1.5 4.5 1 
569 1 2 4 1 
570 1 2 4.5 1.5 
571 1 2.5 4 1.5 
572 1 2.5 4.5 1 
573 1 3 4 1 
574 1 3 4.5 1.5 
575 1 3.5 4 1.5 
576 1 3.5 4.5 1 
577 1 4 4 1 
578 1 4 4.5 1.5 
579 1 4.5 4 1.5 
580 1 4.5 4.5 1 
581 1 5 4 1 
582 1 5 4.5 1.5 
583 1 5.5 4 1.5 
584 1 5.5 4.5 1 
585 1 6 4 1 
586 1 6 4.5 1.5 
587 1 6.5 4 1.5 
588 1 6.5 4.5 1 
589 1 7 4 1 
590 1 7 4.5 1.5 
591 1 7.5 4 1.5 
592 1 7.5 4.5 1 
593 1 8 4 1 
594 1 8 4.5 1.5 
595 1 8.5 4 1.5 
596 1 8.5 4.5 1 
597 1 9 4 1 
598 1 9 4.5 1.5 
599 2 9.5 4 1.5 
600 1 9.5 4.5 1 
601 1 0 5 1 
602 1 0 5.5 1.5 
603 1 0.5 5 1.5 
604 1 0.5 5.5 1 
605 1 1 5 1 
606 1 1 5.5 1.5 
607 1 1.5 5 1.5 
608 1 1.5 5.5 1 
609 1 2 5 1 
610 1 2 5.5 1.5 
611 1 2.5 5 1.5 
612 1 2.5 5.5 1 
613 1 3 5 1 
614 1 3 5.5 1.5 
615 1 3.5 5 1.5 
616 1 3.5 5.5 1 
617 1 4 5 1 
618 1 4 5.5 1.5 
619 2 4.5 5 1.5 
620 1 4.5 5.5 1 
621 1 5 5 1 
622 1 5 5.5 1.5 
623 1 5.5 5 1.5 
624 1 5.5 5.5 1 
625 1 6 5 1 
626 1 6 5.5 1.5 
627 2 6.5 5 1.5 
628 1 6.5 5.5 1 
629 1 7 5 1 
630 1 7 5.5 1.5 
631 1 7.5 5 1.5 
632 1 7.5 5.5 1 
633 1 8 5 1 
634 1 8 5.5 1.5 
635 1 8.5 5 1.5 
636 1 8.5 5.5 1 
637 1 9 5 1 
638 1 9 5.5 1.5 
639 1 9.5 5 1.5 
640 1 9.5 5.5 1 
641 1 0 6 1 
642 1 0 6.5 1.5 
643 1 0.5 6 1.5 
644 1 0.5 6.5 1 
645 1 1 6 1 
646 1 1 6.5 1.5 
647 1 1.5 6 1.5 
648 1 1.5 6.5 1 
649 1 2 6 1 
650 2 2 6.5 1.5 
651 2 2.5 6 1.5 
652 1 2.5 6.5 1 
653 1 3 6 1 
654 1 3 6.5 1.5 
655 1 3.5 6 1.5 
656 1 3.5 6.5 1 
657 1 4 6 1 
658 1 4 6.5 1.5 
659 2 4.5 6 1.5 
660 1 4.5 6.5 1 
661 1 5 6 1 
662 1 5 6.5 1.5 
663 1 5.5 6 1.5 
664 1 5.5 6.5 1 
665 1 6 6 1 
666 1 6 6.5 1.5 
667 1 6.5 6 1.5 
668 1 6.5 6.5 1 
669 1 7 6 1 
670 1 7 6.5 1.5 
671 1 7.5 6 1.5 
672 1 7.5 6.5 1 
673 1 8 6 1 
674 1 8 6.5 1.5 
675 1 8.5 6 1.5 
676 1 8.5 6.5 1 
677 1 9 6 1 
678 1 9 6.5 1.5 
679 1 9.5 6 1.5 
680 2 9.5 6.5 1 
681 1 0 7 1 
682 1 0 7.5 1.5 
683 1 0.5 7 1.5 
684 1 0.5 7.5 1 
685 2 1 7 1 
686 1 1 7.5 1.5 
687 1 1.5 7 1.5 
688 1 1.5 7.5 1 
689 1 2 7 1 
690 1 2 7.5 1.5 
691 1 2.5 7 1.5 
692 1 2.5 7.5 1 
693 1 3 7 1 
694 1 3 7.5 1.5 
695 1 3.5 7 1.5 
696 1 3.5 7.5 1 
697 1 4 7 1 
698 2 4 7.5 1.5 
699 1 4.5 7 1.5 
700 1 4.5 7.5 1 
701 1 5 7 1 
702 2 5 7.5 1.5 
703 2 5.5 7 1.5 
704 1 5.5 7.5 1 
705 1 6 7 1 
706 1 6 7.5 1.5 
707 1 6.5 7 1.5 
708 1 6.5 7.5 1 
709 1 7 7 1 
710 2 7 7.5 1.5 
711 1 7.5 7 1.5 
712 1 7.5 7.5 1 
713 1 8 7 1 
714 1 8 7.5 1.5 
715 1 8.5 7 1.5 
716 2 8.5 7.5 1 
717 1 9 7 1 
718 1 9 7.5 1.5 
719 1 9.5 7 1.5 
720 1 9.5 7.5 1 
721 1 0 8 1 
722 1 0 8.5 1.5 
723 2 0.5 8 1.5 
724 1 0.5 8.5 1 
725 1 1 8 1 
726 1 1 8.5 1.5 
727 1 1.5 8 1.5 
728 1 1.5 8.5 1 
729 1 2 8 1 
730 1 2 8.5 1.5 
731 1 2.5 8 1.5 
732 1 2.5 8.5 1 
733 2 3 8 1 
734 1 3 8.5 1.5 
735 1 3.5 8 1.5 
736 1 3.5 8.5 1 
737 1 4 8 1 
738 1 4 8.5 1.5 
739 1 4.5 8 1.5 
740 1 4.5 8.5 1 
741 1 5 8 1 
742 1 5 8.5 1.5 
743 1 5.5 8 1.5 
744 1 5.5 8.5 1 
745 1 6 8 1 
746 1 6 8.5 1.5 
747 1 6.5 8 1.5 
748 1 6.5 8.5 1 
749 1 7 8 1 
750 1 7 8.5 1.5 
751 1 7.5 8 1.5 
752 1 7.5 8.5 1 
753 1 8 8 1 
754 1 8 8.5 1.5 
755 1 8.5 8 1.5 
756 1 8.5 8.5 1 
757 1 9 8 1 
758 1 9 8.5 1.5 
759 1 9.5 8 1.5 
760 1 9.5 8.5 1 
761 1 0 9 1 
762 1 0 9.5 1.5 
763 2 0.5 9 1.5 
764 1 0.5 9.5 1 
765 1 1 9 1 
766 1 1 9.5 1.5 
767 1 1.5 9 1.5 
768 1 1.5 9.5 1 
769 1 2 9 1 
770 2 2 9.5 1.5 
771 1 2.5 9 1.5 
772 1 2.5 9.5 1 
773 1 3 9 1 
774 2 3 9.5 1.5 
775 1 3.5 9 1.5 
776 2 3.5 9.5 1 
777 1 4 9 1 
778 1 4 9.5 1.5 
779 1 4.5 9 1.5 
780 2 4.5 9.5 1 
781 1 5 9 1 
782 1 5 9.5 1.5 
783 1 5.5 9 1.5 
784 1 5.5 9.5 1 
785 1 6 9 1 
786 1 6 9.5 1.5 
787 1 6.5 9 1.5 
788 1 6.5 9.5 1 
789 1 7 9 1 
790 1 7 9.5 1.5 
791 1 7.5 9 1.5 
792 1 7.5 9.5 1 
793 1 8 9 1 
794 1 8 9.5 1.5 
795 1 8.5 9 1.5 
796 1 8.5 9.5 1 
797 1 9 9 1 
798 1 9 9.5 1.5 
799 1 9.5 9 1.5 
800 1 9.5 9.5 1 
801 1 0 0 2 
802 1 0 0.5 2.5 
803 1 0.5 0 2.5 
804 1 0.5 0.5 2 
805 2 1 0 2 
806 1 1 0.5 2.5 
807 1 1.5 0 2.5 
808 1 1.5 0.5 2 
809 1 2 0 2 
810 1 2 0.5 2.5 
811 1 2.5 0 2.5 
812 1 2.5 0.5 2 
813 2 3 0 2 
814 1 3 0.5 2.5 
815 1 3.5 0 2.5 
816 1 3.5 0.5 2 
817 1 4 0 2 
818 1 4 0.5 2.5 
819 1 4.5 0 2.5 
820 1 4.5 0.5 2 
821 1 5 0 2 
822 1 5 0.5 2.5 
823 1 5.5 0 2.5 
824 1 5.5 0.5 2 
825 1 6 0 2 
826 1 6 0.5 2.5 
827 1 6.5 0 2.5 
828 2 6.5 0.5 2 
829 1 7 0 2 
830 2 7 0.5 2.5 
831 1 7.5 0 2.5 
832 1 7.5 0.5 2 
833 2 8 0 2 
834 1 8 0.5 2.5 
835 1 8.5 0 2.5 
836 1 8.5 0.5 2 
837 1 9 0 2 
838 1 9 0.5 2.5 
839 1 9.5 0 2.5 
840 1 9.5 0.5 2 
841 1 0 1 2 
842 1 0 1.5 2.5 
843 1 0.5 1 2.5 
844 1 0.5 1.5 2 
845 1 1 1 2 
846 1 1 1.5 2.5 
847 1 1.5 1 2.5 
848 1 1.5 1.5 2 
849 1 2 1 2 
850 1 2 1.5 2.5 
851 1 2.5 1 2.5 
852 1 2.5 1.5 2 
853 1 3 1 2 
854 1 3 1.5 2.5 
855 1 3.5 1 2.5 
856 1 3.5 1.5 2 
857 1 4 1 2 
858 1 4 1.5 2.5 
859 1 4.5 1 2.5 
860 1 4.5 1.5 2 
861 2 5 1 2 
862 1 5 1.5 2.5 
863 1 5.5 1 2.5 
864 1 5.5 1.5 2 
865 1 6 1 2 
866 1 6 1.5 2.5 
867 2 6.5 1 2.5 
868 1 6.5 1.5 2 
869 1 7 1 2 
870 1 7 1.5 2.5 
871 1 7.5 1 2.5 
872 1 7.5 1.5 2 
873 1 8 1 2 
874 1 8 1.5 2.5 
875 1 8.5 1 2.5 
876 2 8.5 1.5 2 
877 1 9 1 2 
878 2 9 1.5 2.5 
879 2 9.5 1 2.5 
880 1 9.5 1.5 2 
881 1 0 2 2 
882 2 0 2.5 2.5 
883 1 0.5 2 2.5 
884 1 0.5 2.5 2 
885 1 1 2 2 
886 1 1 2.5 2.5 
887 1 1.5 2 2.5 
888 2 1.5 2.5 2 
889 1 2 2 2 
890 1 2 2.5 2.5 
891 1 2.5 2 2.5 
892 1 2.5 2.5 2 
893 1 3 2 2 
894 1 3 2.5 2.5 
895 1 3.5 2 2.5 
896 1 3.5 2.5 2 
897 1 4 2 2 
898 1 4 2.5 2.5 
899 1 4.5 2 2.5 
900 1 4.5 2.5 2 
901 1 5 2 2 
902 1 5 2.5 2.5 
903 1 5.5 2 2.5 
904 1 5.5 2.5 2 
905 1 6 2 2 
906 1 6 2.5 2.5 
907 1 6.5 2 2.5 
908 1 6.5 2.5 2 
909 1 7 2 2 
910 1 7 2.5 2.5 
911 1 7.5 2 2.5 
912 2 7.5 2.5 2 
913 1 8 2 2 
914 1 8 2.5 2.5 
915 1 8.5 2 2.5 
916 1 8.5 2.5 2 
917 1 9 2 2 
918 1 9 2.5 2.5 
919 1 9.5 2 2.5 
920 1 9.5 2.5 2 
921 1 0 3 2 
922 1 0 3.5 2.5 
923 1 0.5 3 2.5 
924 1 0.5 3.5 2 
925 1 1 3 2 
926 1 1 3.5 2.5 
927 1 1.5 3 2.5 
928 1 1.5 3.5 2 
929 1 2 3 2 
930 1 2 3.5 2.5 
931 1 2.5 3 2.5 
932 1 2.5 3.5 2 
933 1 3 3 2 
934 2 3 3.5 2.5 
935 1 3.5 3 2.5 
936 1 3.5 3.5 2 
937 1 4 3 2 
938 1 4 3.5 2.5 
939 1 4.5 3 2.5 
940 1 4.5 3.5 2 
941 1 5 3 2 
942 1 5 3.5 2.5 
943 1 5.5 3 2.5 
944 1 5.5 3.5 2 
945 1 6 3 2 
946 1 6 3.5 2.5 
947 1 6.5 3 2.5 
948 1 6.5 3.5 2 
949 1 7 3 2 
950 1 7 3.5 2.5 
951 1 7.5 3 2.5 
952 1 7.5 3.5 2 
953 1 8 3 2 
954 2 8 3.5 2.5 
955 1 8.5 3 2.5 
956 1 8.5 3.5 2 
957 1 9 3 2 
958 1 9 3.5 2.5 
959 1 9.5 3 2.5 
960 1 9.5 3.5 2 
961 1 0 4 2 
962 1 0 4.5 2.5 
963 1 0.5 4 2.5 
964 1 0.5 4.5 2 
965 1 1 4 2 
966 1 1 4.5 2.5 
967 1 1.5 4 2.5 
968 1 1.5 4.5 2 
969 1 2 4 2 
970 1 2 4.5 2.5 
971 1 2.5 4 2.5 
972 1 2.5 4.5 2 
973 1 3 4 2 
974 1 3 4.5 2.5 
975 1 3.5 4 2.5 
976 1 3.5 4.5 2 
977 1 4 4 2 
978 1 4 4.5 2.5 
979 1 4.5 4 2.5 
980 1 4.5 4.5 2 
981 1 5 4 2 
982 1 5 4.5 2.5 
983 1 5.5 4 2.5 
984 1 5.5 4.5 2 
985 1 6 4 2 
986 1 6 4.5 2.5 
987 1 6.5 4 2.5 
988 1 6.5 4.5 2 
989 1 7 4 2 
990 2 7 4.5 2.5 
991 2 7.5 4 2.5 
992 1 7.5 4.5 2 
993 1 8 4 2 
994 1 8 4.5 2.5 
995 1 8.5 4 2.5 
996 1 8.5 4.5 2 
997 1 9 4 2 
998 2 9 4.5 2.5 
999 1 9.5 4 2.5 
1000 1 9.5 4.5 2 
1001 1 0 5 2 
1002 1 0 5.5 2.5 
1003 1 0.5 5 2.5 
1004 1 0.5 5.5 2 
1005 1 1 5 2 
1006 2 1 5.5 2.5 
1007 1 1.5 5 2.5 
1008 1 1.5 5.5 2 
1009 2 2 5 2 
1010 1 2 5.5 2.5 
1011 1 2.5 5 2.5 
1012 2 2.5 5.5 2 
1013 1 3 5 2 
1014 1 3 5.5 2.5 
1015 1 3.5 5 2.5 
1016 1 3.5 5.5 2 
1017 1 4 5 2 
1018 1 4 5.5 2.5 
1019 1 4.5 5 2.5 
1020 1 4.5 5.5 2 
1021 1 5 5 2 
1022 1 5 5.5 2.5 
1023 1 5.5 5 2.5 
1024 1 5.5 5.5 2 
1025 2 6 5 2 
1026 1 6 5.5 2.5 
1027 1 6.5 5 2.5 
1028 1 6.5 5.5 2 
1029 2 7 5 2 
1030 1 7 5.5 2.5 
1031 1 7.5 5 2.5 
1032 1 7.5 5.5 2 
1033 2 8 5 2 
1034 1 8 5.5 2.5 
1035 1 8.5 5 2.5 
1036 1 8.5 5.5 2 
1037 1 9 5 2 
1038 1 9 5.5 2.5 
1039 1 9.5 5 2.5 
1040 1 9.5 5.5 2 
1041 1 0 6 2 
1042 1 0 6.5 2.5 
1043 2 0.5 6 2.5 
1044 1 0.5 6.5 2 
1045 1 1 6 2 
1046 1 1 6.5 2.5 
1047 1 1.5 6 2.5 
1048 1 1.5 6.5 2 
1049 1 2 6 2 
1050 1 2 6.5 2.5 
1051 1 2.5 6 2.5 
1052 1 2.5 6.5 2 
1053 1 3 6 2 
1054 1 3 6.5 2.5 
1055 1 3.5 6 2.5 
1056 1 3.5 6.5 2 
1057 1 4 6 2 
1058 1 4 6.5 2.5 
1059 1 4.5 6 2.5 
1060 1 4.5 6.5 2 
1061 1 5 6 2 
1062 1 5 6.5 2.5 
1063 2 5.5 6 2.5 
1064 1 5.5 6.5 2 
1065 1 6 6 2 
1066 1 6 6.5 2.5 
1067 1 6.5 6 2.5 
1068 1 6.5 6.5 2 
1069 1 7 6 2 
1070 1 7 6.5 2.5 
1071 1 7.5 6 2.5 
1072 1 7.5 6.5 2 
1073 1 8 6 2 
1074 1 8 6.5 2.5 
1075 2 8.5 6 2.5 
1076 1 8.5 6.5 2 
1077 1 9 6 2 
1078 1 9 6.5 2.5 
1079 2 9.5 6 2.5 
1080 1 9.5 6.5 2 
1081 1 0 7 2 
1082 1 0 7.5 2.5 
1083 1 0.5 7 2.5 
1084 1 0.5 7.5 2 
1085 1 1 7 2 
1086 1 1 7.5 2.5 
1087 1 1.5 7 2.5 
1088 1 1.5 7.5 2 
1089 1 2 7 2 
1090 1 2 7.5 2.5 
1091 1 2.5 7 2.5 
1092 1 2.5 7.5 2 
1093 1 3 7 2 
1094 1 3 7.5 2.5 
1095 1 3.5 7 2.5 
1096 1 3.5 7.5 2 
1097 1 4 7 2 
1098 1 4 7.5 2.5 
1099 2 4.5 7 2.5 
1100 1 4.5 7.5 2 
1101 1 5 7 2 
1102 1 5 7.5 2.5 
1103 1 5.5 7 2.5 
1104 1 5.5 7.5 2 
1105 1 6 7 2 
1106 1 6 7.5 2.5 
1107 1 6.5 7 2.5 
1108 1 6.5 7.5 2 
1109 1 7 7 2 
1110 1 7 7.5 2.5 
1111 1 7.5 7 2.5 
1112 1 7.5 7.5 2 
1113 1 8 7 2 
1114 1 8 7.5 2.5 
1115 1 8.5 7 2.5 
1116 1 8.5 7.5 2 
1117 1 9 7 2 
1118 1 9 7.5 2.5 
1119 1 9.5 7 2.5 
1120 1 9.5 7.5 2 
1121 1 0 8 2 
1122 1 0 8.5 2.5 
1123 1 0.5 8 2.5 
1124 1 0.5 8.5 2 
1125 1 1 8 2 
1126 2 1 8.5 2.5 
1127 1 1.5 8 2.5 
1128 1 1.5 8.5 2 
1129 1 2 8 2 
1130 1 2 8.5 2.5 
1131 2 2.5 8 2.5 
1132 1 2.5 8.5 2 
1133 1 3 8 2 
1134 2 3 8.5 2.5 
1135 2 3.5 8 2.5 
1136 1 3.5 8.5 2 
1137 1 4 8 2 
1138 1 4 8.5 2.5 
1139 1 4.5 8 2.5 
1140 1 4.5 8.5 2 
1141 1 5 8 2 
1142 1 5 8.5 2.5 
1143 1 5.5 8 2.5 
1144 1 5.5 8.5 2 
1145 1 6 8 2 
1146 2 6 8.5 2.5 
1147 1 6.5 8 2.5 
1148 1 6.5 8.5 2 
1149 1 7 8 2 
1150 1 7 8.5 2.5 
1151 2 7.5 8 2.5 
1152 2 7.5 8.5 2 
1153 2 8 8 2 
1154 1 8 8.5 2.5 
1155 1 8.5 8 2.5 
1156 1 8.5 8.5 2 
1157 1 9 8 2 
1158 2 9 8.5 2.5 
1159 1 9.5 8 2.5 
1160 1 9.5 8.5 2 
1161 1 0 9 2 
1162 1 0 9.5 2.5 
1163 1 0.5 9 2.5 
1164 1 0.5 9.5 2 
1165 1 1 9 2 
1166 1 1 9.5 2.5 
1167 1 1.5 9 2.5 
1168 1 1.5 9.5 2 
1169 1 2 9 2 
1170 1 2 9.5 2.5 
1171 2 2.5 9 2.5 
1172 2 2.5 9.5 2 
1173 1 3 9 2 
1174 2 3 9.5 2.5 
1175 1 3.5 9 2.5 
1176 1 3.5 9.5 2 
1177 1 4 9 2 
1178 1 4 9.5 2.5 
1179 1 4.5 9 2.5 
1180 1 4.5 9.5 2 
1181 1 5 9 2 
1182 1 5 9.5 2.5 
1183 1 5.5 9 2.5 
1184 1 5.5 9.5 2 
1185 1 6 9 2 
1186 1 6 9.5 2.5 
1187 2 6.5 9 2.5 
1188 1 6.5 9.5 2 
1189 1 7 9 2 
1190 2 7 9.5 2.5 
1191 1 7.5 9 2.5 
1192 1 7.5 9.5 2 
1193 1 8 9 2 
1194 1 8 9.5 2.5 
1195 1 8.5 9 2.5 
1196 1 8.5 9.5 2 
1197 1 9 9 2 
1198 1 9 9.5 2.5 
1199 1 9.5 9 2.5 
1200 1 9.5 9.5 2 
1201 1 0 0 3 
1202 1 0 0.5 3.5 
1203 2 0.5 0 3.5 
1204 1 0.5 0.5 3 
1205 1 1 0 3 
1206 1 1 0.5 3.5 
1207 1 1.5 0 3.5 
1208 1 1.5 0.5 3 
1209 1 2 0 3 
1210 2 2 0.5 3.5 
1211 1 2.5 0 3.5 
1212 1 2.5 0.5 3 
1213 1 3 0 3 
1214 1 3 0.5 3.5 
1215 1 3.5 0 3.5 
1216 1 3.5 0.5 3 
1217 1 4 0 3 
1218 1 4 0.5 3.5 
1219 2 4.5 0 3.5 
1220 1 4.5 0.5 3 
1221 1 5 0 3 
1222 1 5 0.5 3.5 
1223 1 5.5 0 3.5 
1224 1 5.5 0.5 3 
1225 1 6 0 3 
1226 1 6 0.5 3.5 
1227 1 6.5 0 3.5 
1228 1 6.5 0.5 3 
1229 1 7 0 3 
1230 1 7 0.5 3.5 
1231 1 7.5 0 3.5 
1232 2 7.5 0.5 3 
1233 1 8 0 3 
1234 1 8 0.5 3.5 
1235 1 8.5 0 3.5 
1236 1 8.5 0.5 3 
1237 1 9 0 3 
1238 1 9 0.5 3.5 
1239 1 9.5 0 3.5 
1240 1 9.5 0.5 3 
1241 2 0 1 3 
1242 1 0 1.5 3.5 
1243 2 0.5 1 3.5 
1244 1 0.5 1.5 3 
1245 2 1 1 3 
1246 1 1 1.5 3.5 
1247 1 1.5 1 3.5 
1248 1 1.5 1.5 3 
1249 1 2 1 3 
1250 1 2 1.5 3.5 
1251 1 2.5 1 3.5 
1252 2 2.5 1.5 3 
1253 1 3 1 3 
1254 1 3 1.5 3.5 
1255 1 3.5 1 3.5 
1256 1 3.5 1.5 3 
1257 1 4 1 3 
1258 1 4 1.5 3.5 
1259 1 4.5 1 3.5 
1260 1 4.5 1.5 3 
1261 1 5 1 3 
1262 1 5 1.5 3.5 
1263 1 5.5 1 3.5 
1264 1 5.5 1.5 3 
1265 1 6 1 3 
1266 1 6 1.5 3.5 
1267 1 6.5 1 3.5 
1268 1 6.5 1.5 3 
1269 1 7 1 3 
1270 2 7 1.5 3.5 
1271 2 7.5 1 3.5 
1272 2 7.5 1.5 3 
1273 1 8 1 3 
1274 1 8 1.5 3.5 
1275 1 8.5 1 3.5 
1276 1 8.5 1.5 3 
1277 1 9 1 3 
1278 1 9 1.5 3.5 
1279 1 9.5 1 3.5 
1280 1 9.5 1.5 3 
1281 2 0 2 3 
1282 1 0 2.5 3.5 
1283 2 0.5 2 3.5 
1284 2 0.5 2.5 3 
1285 2 1 2 3 
1286 1 1 2.5 3.5 
1287 1 1.5 2 3.5 
1288 1 1.5 2.5 3 
1289 1 2 2 3 
1290 1 2 2.5 3.5 
1291 1 2.5 2 3.5 
1292 2 2.5 2.5 3 
1293 1 3 2 3 
1294 1 3 2.5 3.5 
1295 1 3.5 2 3.5 
1296 1 3.5 2.5 3 
1297 2 4 2 3 
1298 2 4 2.5 3.5 
1299 1 4.5 2 3.5 
1300 1 4.5 2.5 3 
1301 1 5 2 3 
1302 1 5 2.5 3.5 
1303 1 5.5 2 3.5 
1304 1 5.5 2.5 3 
1305 1 6 2 3 
1306 1 6 2.5 3.5 
1307 1 6.5 2 3.5 
1308 1 6.5 2.5 3 
1309 1 7 2 3 
1310 1 7 2.5 3.5 
1311 1 7.5 2 3.5 
1312 2 7.5 2.5 3 
1313 2 8 2 3 
1314 1 8 2.5 3.5 
1315 1 8.5 2 3.5 
1316 1 8.5 2.5 3 
1317 1 9 2 3 
1318 2 9 2.5 3.5 
1319 2 9.5 2 3.5 
1320 2 9.5 2.5 3 
1321 1 0 3 3 
1322 1 0 3.5 3.5 
1323 1 0.5 3 3.5 
1324 1 0.5 3.5 3 
1325 1 1 3 3 
1326 2 1 3.5 3.5 
1327 1 1.5 3 3.5 
1328 1 1.5 3.5 3 
1329 2 2 3 3 
1330 1 2 3.5 3.5 
1331 1 2.5 3 3.5 
1332 1 2.5 3.5 3 
1333 1 3 3 3 
1334 1 3 3.5 3.5 
1335 2 3.5 3 3.5 
1336 1 3.5 3.5 3 
1337 1 4 3 3 
1338 1 4 3.5 3.5 
1339 1 4.5 3 3.5 
1340 1 4.5 3.5 3 
1341 1 5 3 3 
1342 1 5 3.5 3.5 
1343 1 5.5 3 3.5 
1344 1 5.5 3.5 3 
1345 1 6 3 3 
1346 1 6 3.5 3.5 
1347 1 6.5 3 3.5 
1348 1 6.5 3.5 3 
1349 2 7 3 3 
1350 1 7 3.5 3.5 
1351 1 7.5 3 3.5 
1352 1 7.5 3.5 3 
1353 1 8 3 3 
1354 1 8 3.5 3.5 
1355 1 8.5 3 3.5 
1356 2 8.5 3.5 3 
1357 1 9 3 3 
1358 1 9 3.5 3.5 
1359 2 9.5 3 3.5 
1360 2 9.5 3.5 3 
1361 1 0 4 3 
1362 1 0 4.5 3.5 
1363 1 0.5 4 3.5 
1364 1 0.5 4.5 3 
1365 1 1 4 3 
1366 1 1 4.5 3.5 
1367 1 1.5 4 3.5 
1368 2 1.5 4.5 3 
1369 2 2 4 3 
1370 1 2 4.5 3.5 
1371 1 2.5 4 3.5 
1372 1 2.5 4.5 3 
1373 1 3 4 3 
1374 1 3 4.5 3.5 
1375 2 3.5 4 3.5 
1376 1 3.5 4.5 3 
1377 1 4 4 3 
1378 1 4 4.5 3.5 
1379 1 4.5 4 3.5 
1380 1 4.5 4.5 3 
1381 2 5 4 3 
1382 1 5 4.5 3.5 
1383 1 5.5 4 3.5 
1384 1 5.5 4.5 3 
1385 1 6 4 3 
1386 1 6 4.5 3.5 
1387 1 6.5 4 3.5 
1388 1 6.5 4.5 3 
1389 1 7 4 3 
1390 1 7 4.5 3.5 
1391 1 7.5 4 3.5 
1392 1 7.5 4.5 3 
1393 1 8 4 3 
1394 1 8 4.5 3.5 
1395 1 8.5 4 3.5 
1396 1 8.5 4.5 3 
1397 1 9 4 3 
1398 1 9 4.5 3.5 
1399 1 9.5 4 3.5 
1400 1 9.5 4.5 3 
1401 1 0 5 3 
1402 1 0 5.5 3.5 
1403 1 0.5 5 3.5 
1404 1 0.5 5.5 3 
1405 1 1 5 3 
1406 1 1 5.5 3.5 
1407 1 1.5 5 3.5 
1408 1 1.5 5.5 3 
1409 2 2 5 3 
1410 1 2 5.5 3.5 
1411 1 2.5 5 3.5 
1412 1 2.5 5.5 3 
1413 1 3 5 3 
1414 2 3 5.5 3.5 
1415 1 3.5 5 3.5 
1416 2 3.5 5.5 3 
1417 1 4 5 3 
1418 2 4 5.5 3.5 
1419 2 4.5 5 3.5 
1420 1 4.5 5.5 3 
1421 2 5 5 3 
1422 1 5 5.5 3.5 
1423 1 5.5 5 3.5 
1424 1 5.5 5.5 3 
1425 1 6 5 3 
1426 2 6 5.5 3.5 
1427 1 6.5 5 3.5 
1428 2 6.5 5.5 3 
1429 1 7 5 3 
1430 1 7 5.5 3.5 
1431 1 7.5 5 3.5 
1432 1 7.5 5.5 3 
1433 1 8 5 3 
1434 2 8 5.5 3.5 
1435 1 8.5 5 3.5 
1436 1 8.5 5.5 3 
1437 1 9 5 3 
1438 1 9 5.5 3.5 
1439 1 9.5 5 3.5 
1440 1 9.5 5.5 3 
1441 1 0 6 3 
1442 1 0 6.5 3.5 
1443 1 0.5 6 3.5 
1444 1 0.5 6.5 3 
1445 1 1 6 3 
1446 1 1 6.5 3.5 
1447 1 1.5 6 3.5 
1448 1 1.5 6.5 3 
1449 1 2 6 3 
1450 2 2 6.5 3.5 
1451 1 2.5 6 3.5 
1452 1 2.5 6.5 3 
1453 1 3 6 3 
1454 1 3 6.5 3.5 
1455 2 3.5 6 3.5 
1456 2 3.5 6.5 3 
1457 1 4 6 3 
1458 1 4 6.5 3.5 
1459 1 4.5 6 3.5 
1460 1 4.5 6.5 3 
1461 1 5 6 3 
1462 1 5 6.5 3.5 
1463 1 5.5 6 3.5 
1464 2 5.5 6.5 3 
1465 1 6 6 3 
1466 1 6 6.5 3.5 
1467 1 6.5 6 3.5 
1468 1 6.5 6.5 3 
1469 1 7 6 3 
1470 1 7 6.5 3.5 
1471 1 7.5 6 3.5 
1472 1 7.5 6.5 3 
1473 1 8 6 3 
1474 1 8 6.5 3.5 
1475 2 8.5 6 3.5 
1476 1 8.5 6.5 3 
1477 2 9 6 3 
1478 1 9 6.5 3.5 
1479 1 9.5 6 3.5 
1480 1 9.5 6.5 3 
1481 1 0 7 3 
1482 2 0 7.5 3.5 
1483 1 0.5 7 3.5 
1484 1 0.5 7.5 3 
1485 1 1 7 3 
1486 1 1 7.5 3.5 
1487 1 1.5 7 3.5 
1488 1 1.5 7.5 3 
1489 2 2 7 3 
1490 1 2 7.5 3.5 
1491 1 2.5 7 3.5 
1492 1 2.5 7.5 3 
1493 1 3 7 3 
1494 2 3 7.5 3.5 
1495 2 3.5 7 3.5 
1496 1 3.5 7.5 3 
1497 1 4 7 3 
1498 1 4 7.5 3.5 
1499 1 4.5 7 3.5 
1500 2 4.5 7.5 3 
1501 2 5 7 3 
1502 1 5 7.5 3.5 
1503 1 5.5 7 3.5 
1504 1 5.5 7.5 3 
1505 1 6 7 3 
1506 1 6 7.5 3.5 
1507 2 6.5 7 3.5 
1508 1 6.5 7.5 3 
1509 1 7 7 3 
1510 2 7 7.5 3.5 
1511 1 7.5 7 3.5 
1512 1 7.5 7.5 3 
1513 1 8 7 3 
1514 2 8 7.5 3.5 
1515 1 8.5 7 3.5 
1516 1 8.5 7.5 3 
1517 1 9 7 3 
1518 1 9 7.5 3.5 
1519 2 9.5 7 3.5 
1520 2 9.5 7.5 3 
1521 1 0 8 3 
1522 2 0 8.5 3.5 
1523 1 0.5 8 3.5 
1524 1 0.5 8.5 3 
1525 1 1 8 3 
1526 1 1 8.5 3.5 
1527 1 1.5 8 3.5 
1528 1 1.5 8.5 3 
1529 1 2 8 3 
1530 1 2 8.5 3.5 
1531 1 2.5 8 3.5 
1532 2 2.5 8.5 3 
1533 1 3 8 3 
1534 1 3 8.5 3.5 
1535 1 3.5 8 3.5 
1536 1 3.5 8.5 3 
1537 1 4 8 3 
1538 1 4 8.5 3.5 
1539 1 4.5 8 3.5 
1540 1 4.5 8.5 3 
1541 1 5 8 3 
1542 2 5 8.5 3.5 
1543 1 5.5 8 3.5 
1544 1 5.5 8.5 3 
1545 1 6 8 3 
1546 1 6 8.5 3.5 
1547 1 6.5 8 3.5 
1548 1 6.5 8.5 3 
1549 1 7 8 3 
1550 1 7 8.5 3.5 
1551 1 7.5 8 3.5 
1552 1 7.5 8.5 3 
1553 1 8 8 3 
1554 2 8 8.5 3.5 
1555 1 8.5 8 3.5 
1556 1 8.5 8.5 3 
1557 1 9 8 3 
1558 1 9 8.5 3.5 
1559 1 9.5 8 3.5 
1560 1 9.5 8.5 3 
1561 1 0 9 3 
1562 1 0 9.5 3.5 
1563 1 0.5 9 3.5 
1564 1 0.5 9.5 3 
1565 2 1 9 3 
1566 1 1 9.5 3.5 
1567 1 1.5 9 3.5 
1568 1 1.5 9.5 3 
1569 1 2 9 3 
1570 2 2 9.5 3.5 
1571 1 2.5 9 3.5 
1572 1 2.5 9.5 3 
1573 1 3 9 3 
1574 1 3 9.5 3.5 
1575 1 3.5 9 3.5 
1576 1 3.5 9.5 3 
1577 1 4 9 3 
1578 1 4 9.5 3.5 
1579 1 4.5 9 3.5 
1580 1 4.5 9.5 3 
1581 1 5 9 3 
1582 1 5 9.5 3.5 
1583 1 5.5 9 3.5 
1584 1 5.5 9.5 3 
1585 2 6 9 3 
1586 1 6 9.5 3.5 
1587 2 6.5 9 3.5 
1588 2 6.5 9.5 3 
1589 1 7 9 3 
1590 1 7 9.5 3.5 
1591 1 7.5 9 3.5 
1592 1 7.5 9.5 3 
1593 1 8 9 3 
1594 1 8 9.5 3.5 
1595 1 8.5 9 3.5 
1596 1 8.5 9.5 3 
1597 1 9 9 3 
1598 1 9 9.5 3.5 
1599 1 9.5 9 3.5 
1600 1 9.5 9.5 3 
1601 1 0 0 4 
1602 1 0 0.5 4.5 
1603 1 0.5 0 4.5 
1604 1 0.5 0.5 4 
1605 1 1 0 4 
1606 1 1 0.5 4.5 
1607 1 1.5 0 4.5 
1608 1 1.5 0.5 4 
1609 1 2 0 4 
1610 1 2 0.5 4.5 
1611 2 2.5 0 4.5 
1612 1 2.5 0.5 4 
1613 1 3 0 4 
1614 1 3 0.5 4.5 
1615 1 3.5 0 4.5 
1616 1 3.5 0.5 4 
1617 1 4 0 4 
1618 1 4 0.5 4.5 
1619 2 4.5 0 4.5 
1620 1 4.5 0.5 4 
1621 1 5 0 4 
1622 1 5 0.5 4.5 
1623 1 5.5 0 4.5 
1624 1 5.5 0.5 4 
1625 1 6 0 4 
1626 2 6 0.5 4.5 
1627 1 6.5 0 4.5 
1628 2 6.5 0.5 4 
1629 1 7 0 4 
1630 1 7 0.5 4.5 
1631 1 7.5 0 4.5 
1632 2 7.5 0.5 4 
1633 1 8 0 4 
1634 1 8 0.5 4.5 
1635 2 8.5 0 4.5 
1636 1 8.5 0.5 4 
1637 1 9 0 4 
1638 2 9 0.5 4.5 
1639 1 9.5 0 4.5 
1640 1 9.5 0.5 4 
1641 2 0 1 4 
1642 2 0 1.5 4.5 
1643 1 0.5 1 4.5 
1644 1 0.5 1.5 4 
1645 1 1 1 4 
1646 2 1 1.5 4.5 
1647 1 1.5 1 4.5 
1648 1 1.5 1.5 4 
1649 2 2 1 4 
1650 1 2 1.5 4.5 
1651 2 2.5 1 4.5 
1652 1 2.5 1.5 4 
1653 1 3 1 4 
1654 1 3 1.5 4.5 
1655 2 3.5 1 4.5 
1656 1 3.5 1.5 4 
1657 1 4 1 4 
1658 1 4 1.5 4.5 
1659 1 4.5 1 4.5 
1660 1 4.5 1.5 4 
1661 1 5 1 4 
1662 1 5 1.5 4.5 
1663 1 5.5 1 4.5 
1664 1 5.5 1.5 4 
1665 1 6 1 4 
1666 1 6 1.5 4.5 
1667 1 6.5 1 4.5 
1668 2 6.5 1.5 4 
1669 1 7 1 4 
1670 1 7 1.5 4.5 
1671 1 7.5 1 4.5 
1672 1 7.5 1.5 4 
1673 1 8 1 4 
1674 1 8 1.5 4.5 
1675 1 8.5 1 4.5 
1676 1 8.5 1.5 4 
1677 2 9 1 4 
1678 2 9 1.5 4.5 
1679 1 9.5 1 4.5 
1680 1 9.5 1.5 4 
1681 1 0 2 4 
1682 2 0 2.5 4.5 
1683 1 0.5 2 4.5 
1684 1 0.5 2.5 4 
1685 1 1 2 4 
1686 1 1 2.5 4.5 
1687 1 1.5 2 4.5 
1688 1 1.5 2.5 4 
1689 1 2 2 4 
1690 1 2 2.5 4.5 
1691 1 2.5 2 4.5 
1692 1 2.5 2.5 4 
1693 1 3 2 4 
1694 1 3 2.5 4.5 
1695 1 3.5 2 4.5 
1696 1 3.5 2.5 4 
1697 1 4 2 4 
1698 1 4 2.5 4.5 
1699 1 4.5 2 4.5 
1700 2 4.5 2.5 4 
1701 1 5 2 4 
1702 1 5 2.5 4.5 
1703 1 5.5 2 4.5 
1704 1 5.5 2.5 4 
1705 1 6 2 4 
1706 1 6 2.5 4.5 
1707 1 6.5 2 4.5 
1708 1 6.5 2.5 4 
1709 1 7 2 4 
1710 1 7 2.5 4.5 
1711 1 7.5 2 4.5 
1712 1 7.5 2.5 4 
1713 1 8 2 4 
1714 2 8 2.5 4.5 
1715 1 8.5 2 4.5 
1716 1 8.5 2.5 4 
1717 2 9 2 4 
1718 2 9 2.5 4.5 
1719 1 9.5 2 4.5 
1720 1 9.5 2.5 4 
1721 1 0 3 4 
1722 2 0 3.5 4.5 
1723 1 0.5 3 4.5 
1724 1 0.5 3.5 4 
1725 1 1 3 4 
1726 2 1 3.5 4.5 
1727 1 1.5 3 4.5 
1728 1 1.5 3.5 4 
1729 1 2 3 4 
1730 1 2 3.5 4.5 
1731 2 2.5 3 4.5 
1732 1 2.5 3.5 4 
1733 1 3 3 4 
1734 2 3 3.5 4.5 
1735 2 3.5 3 4.5 
1736 2 3.5 3.5 4 
1737 1 4 3 4 
1738 1 4 3.5 4.5 
1739 1 4.5 3 4.5 
1740 1 4.5 3.5 4 
1741 1 5 3 4 
1742 1 5 3.5 4.5 
1743 2 5.5 3 4.5 
1744 1 5.5 3.5 4 
1745 1 6 3 4 
1746 1 6 3.5 4.5 
1747 1 6.5 3 4.5 
1748 1 6.5 3.5 4 
1749 1 7 3 4 
1750 1 7 3.5 4.5 
1751 1 7.5 3 4.5 
1752 1 7.5 3.5 4 
1753 1 8 3 4 
1754 1 8 3.5 4.5 
1755 2 8.5 3 4.5 
1756 1 8.5 3.5 4 
1757 1 9 3 4 
1758 2 9 3.5 4.5 
1759 1 9.5 3 4.5 
1760 1 9.5 3.5 4 
1761 1 0 4 4 
1762 1 0 4.5 4.5 
1763 1 0.5 4 4.5 
1764 1 0.5 4.5 4 
1765 1 1 4 4 
1766 2 1 4.5 4.5 
1767 1 1.5 4 4.5 
1768 1 1.5 4.5 4 
1769 2 2 4 4 
1770 1 2 4.5 4.5 
1771 1 2.5 4 4.5 
1772 1 2.5 4.5 4 
1773 1 3 4 4 
1774 1 3 4.5 4.5 
1775 1 3.5 4 4.5 
1776 2 3.5 4.5 4 
1777 1 4 4 4 
1778 1 4 4.5 4.5 
1779 2 4.5 4 4.5 
1780 1 4.5 4.5 4 
1781 1 5 4 4 
1782 2 5 4.5 4.5 
1783 1 5.5 4 4.5 
1784 1 5.5 4.5 4 
1785 2 6 4 4 
1786 2 6 4.5 4.5 
1787 2 6.5 4 4.5 
1788 1 6.5 4.5 4 
1789 1 7 4 4 
1790 1 7 4.5 4.5 
1791 1 7.5 4 4.5 
1792 1 7.5 4.5 4 
1793 1 8 4 4 
1794 1 8 4.5 4.5 
1795 1 8.5 4 4.5 
1796 1 8.5 4.5 4 
1797 1 9 4 4 
1798 1 9 4.5 4.5 
1799 1 9.5 4 4.5 
1800 1 9.5 4.5 4 
1801 2 0 5 4 
1802 1 0 5.5 4.5 
1803 1 0.5 5 4.5 
1804 1 0.5 5.5 4 
1805 1 1 5 4 
1806 1 1 5.5 4.5 
1807 1 1.5 5 4.5 
1808 1 1.5 5.5 4 
1809 2 2 5 4 
1810 1 2 5.5 4.5 
1811 1 2.5 5 4.5 
1812 1 2.5 5.5 4 
1813 1 3 5 4 
1814 2 3 5.5 4.5 
1815 2 3.5 5 4.5 
1816 1 3.5 5.5 4 
1817 1 4 5 4 
1818 1 4 5.5 4.5 
1819 2 4.5 5 4.5 
1820 1 4.5 5.5 4 
1821 1 5 5 4 
1822 1 5 5.5 4.5 
1823 1 5.5 5 4.5 
1824 2 5.5 5.5 4 
1825 1 6 5 4 
1826 1 6 5.5 4.5 
1827 1 6.5 5 4.5 
1828 1 6.5 5.5 4 
1829 1 7 5 4 
1830 2 7 5.5 4.5 
1831 1 7.5 5 4.5 
1832 1 7.5 5.5 4 
1833 1 8 5 4 
1834 2 8 5.5 4.5 
1835 1 8.5 5 4.5 
1836 1 8.5 5.5 4 
1837 1 9 5 4 
1838 1 9 5.5 4.5 
1839 1 9.5 5 4.5 
1840 2 9.5 5.5 4 
1841 1 0 6 4 
1842 1 0 6.5 4.5 
1843 1 0.5 6 4.5 
1844 1 0.5 6.5 4 
1845 1 1 6 4 
1846 2 1 6.5 4.5 
1847 1 1.5 6 4.5 
1848 2 1.5 6.5 4 
1849 1 2 6 4 
1850 2 2 6.5 4.5 
1851 1 2.5 6 4.5 
1852 1 2.5 6.5 4 
1853 2 3 6 4 
1854 1 3 6.5 4.5 
1855 1 3.5 6 4.5 
1856 2 3.5 6.5 4 
1857 1 4 6 4 
1858 2 4 6.5 4.5 
1859 2 4.5 6 4.5 
1860 1 4.5 6.5 4 
1861 2 5 6 4 
1862 1 5 6.5 4.5 
1863 1 5.5 6 4.5 
1864 1 5.5 6.5 4 
1865 2 6 6 4 
1866 2 6 6.5 4.5 
1867 2 6.5 6 4.5 
1868 1 6.5 6.5 4 
1869 1 7 6 4 
1870 1 7 6.5 4.5 
1871 2 7.5 6 4.5 
1872 1 7.5 6.5 4 
1873 1 8 6 4 
1874 1 8 6.5 4.5 
1875 1 8.5 6 4.5 
1876 1 8.5 6.5 4 
1877 1 9 6 4 
1878 1 9 6.5 4.5 
1879 1 9.5 6 4.5 
1880 2 9.5 6.5 4 
1881 2 0 7 4 
1882 1 0 7.5 4.5 
1883 1 0.5 7 4.5 
1884 1 0.5 7.5 4 
1885 1 1 7 4 
1886 1 1 7.5 4.5 
1887 1 1.5 7 4.5 
1888 1 1.5 7.5 4 
1889 1 2 7 4 
1890 2 2 7.5 4.5 
1891 1 2.5 7 4.5 
1892 1 2.5 7.5 4 
1893 1 3 7 4 
1894 2 3 7.5 4.5 
1895 1 3.5 7 4.5 
1896 1 3.5 7.5 4 
1897 1 4 7 4 
1898 1 4 7.5 4.5 
1899 1 4.5 7 4.5 
1900 1 4.5 7.5 4 
1901 1 5 7 4 
1902 1 5 7.5 4.5 
1903 2 5.5 7 4.5 
1904 1 5.5 7.5 4 
1905 2 6 7 4 
1906 1 6 7.5 4.5 
1907 2 6.5 7 4.5 
1908 1 6.5 7.5 4 
1909 1 7 7 4 
1910 1 7 7.5 4.5 
1911 2 7.5 7 4.5 
1912 1 7.5 7.5 4 
1913 1 8 7 4 
1914 1 8 7.5 4.5 
1915 1 8.5 7 4.5 
1916 1 8.5 7.5 4 
1917 1 9 7 4 
1918 1 9 7.5 4.5 
1919 1 9.5 7 4.5 
1920 2 9.5 7.5 4 
1921 1 0 8 4 
1922 1 0 8.5 4.5 
1923 1 0.5 8 4.5 
1924 1 0.5 8.5 4 
1925 1 1 8 4 
1926 1 1 8.5 4.5 
1927 1 1.5 8 4.5 
1928 1 1.5 8.5 4 
1929 1 2 8 4 
1930 2 2 8.5 4.5 
1931 1 2.5 8 4.5 
1932 1 2.5 8.5 4 
1933 1 3 8 4 
1934 1 3 8.5 4.5 
1935 1 3.5 8 4.5 
1936 1 3.5 8.5 4 
1937 1 4 8 4 
1938 1 4 8.5 4.5 
1939 1 4.5 8 4.5 
1940 1 4.5 8.5 4 
1941 1 5 8 4 
1942 2 5 8.5 4.5 
1943 1 5.5 8 4.5 
1944 1 5.5 8.5 4 
1945 1 6 8 4 
1946 1 6 8.5 4.5 
1947 1 6.5 8 4.5 
1948 1 6.5 8.5 4 
1949 1 7 8 4 
1950 1 7 8.5 4.5 
1951 1 7.5 8 4.5 
1952 1 7.5 8.5 4 
1953 1 8 8 4 
1954 1 8 8.5 4.5 
1955 1 8.5 8 4.5 
1956 1 8.5 8.5 4 
1957 1 9 8 4 
1958 1 9 8.5 4.5 
1959 2 9.5 8 4.5 
1960 1 9.5 8.5 4 
1961 2 0 9 4 
1962 2 0 9.5 4.5 
1963 2 0.5 9 4.5 
1964 1 0.5 9.5 4 
1965 2 1 9 4 
1966 1 1 9.5 4.5 
1967 1 1.5 9 4.5 
1968 1 1.5 9.5 4 
1969 2 2 9 4 
1970 1 2 9.5 4.5 
1971 1 2.5 9 4.5 
1972 1 2.5 9.5 4 
1973 1 3 9 4 
1974 1 3 9.5 4.5 
1975 1 3.5 9 4.5 
1976 2 3.5 9.5 4 
1977 2 4 9 4 
1978 1 4 9.5 4.5 
1979 1 4.5 9 4.5 
1980 1 4.5 9.5 4 
1981 2 5 9 4 
1982 1 5 9.5 4.5 
1983 1 5.5 9 4.5 
1984 1 5.5 9.5 4 
1985 2 6 9 4 
1986 1 6 9.5 4.5 
1987 1 6.5 9 4.5 
1988 2 6.5 9.5 4 
1989 1 7 9 4 
1990 1 7 9.5 4.5 
1991 1 7.5 9 4.5 
1992 2 7.5 9.5 4 
1993 1 8 9 4 
1994 1 8 9.5 4.5 
1995 2 8.5 9 4.5 
1996 1 8.5 9.5 4 
1997 2 9 9 4 
1998 2 9 9.5 4.5 
1999 1 9.5 9 4.5 
2000 1 9.5 9.5 4 
2001 1 0 0 5 
2002 1 0 0.5 5.5 
2003 1 0.5 0 5.5 
2004 1 0.5 0.5 5 
2005 2 1 0 5 
2006 2 1 0.5 5.5 
2007 1 1.5 0 5.5 
2008 1 1.5 0.5 5 
2009 1 2 0 5 
2010 1 2 0.5 5.5 
2011 1 2.5 0 5.5 
2012 1 2.5 0.5 5 
2013 1 3 0 5 
2014 1 3 0.5 5.5 
2015 2 3.5 0 5.5 
2016 2 3.5 0.5 5 
2017 1 4 0 5 
2018 1 4 0.5 5.5 
2019 1 4.5 0 5.5 
2020 2 4.5 0.5 5 
2021 1 5 0 5 
2022 1 5 0.5 5.5 
2023 2 5.5 0 5.5 
2024 1 5.5 0.5 5 
2025 2 6 0 5 
2026 1 6 0.5 5.5 
2027 1 6.5 0 5.5 
2028 1 6.5 0.5 5 
2029 1 7 0 5 
2030 1 7 0.5 5.5 
2031 1 7.5 0 5.5 
2032 1 7.5 0.5 5 
2033 1 8 0 5 
2034 1 8 0.5 5.5 
2035 1 8.5 0 5.5 
2036 2 8.5 0.5 5 
2037 1 9 0 5 
2038 1 9 0.5 5.5 
2039 1 9.5 0 5.5 
2040 2 9.5 0.5 5 
2041 2 0 1 5 
2042 1 0 1.5 5.5 
2043 1 0.5 1 5.5 
2044 2 0.5 1.5 5 
2045 1 1 1 5 
2046 1 1 1.5 5.5 
2047 2 1.5 1 5.5 
2048 2 1.5 1.5 5 
2049 2 2 1 5 
2050 1 2 1.5 5.5 
2051 2 2.5 1 5.5 
2052 1 2.5 1.5 5 
2053 1 3 1 5 
2054 1 3 1.5 5.5 
2055 1 3.5 1 5.5 
2056 1 3.5 1.5 5 
2057 2 4 1 5 
2058 1 4 1.5 5.5 
2059 1 4.5 1 5.5 
2060 1 4.5 1.5 5 
2061 1 5 1 5 
2062 1 5 1.5 5.5 
2063 2 5.5 1 5.5 
2064 1 5.5 1.5 5 
2065 2 6 1 5 
2066 1 6 1.5 5.5 
2067 1 6.5 1 5.5 
2068 2 6.5 1.5 5 
2069 1 7 1 5 
2070 1 7 1.5 5.5 
2071 1 7.5 1 5.5 
2072 1 7.5 1.5 5 
2073 2 8 1 5 
2074 2 8 1.5 5.5 
2075 1 8.5 1 5.5 
2076 1 8.5 1.5 5 
2077 2 9 1 5 
2078 2 9 1.5 5.5 
2079 1 9.5 1 5.5 
2080 1 9.5 1.5 5 
2081 2 0 2 5 
2082 2 0 2.5 5.5 
2083 1 0.5 2 5.5 
2084 1 0.5 2.5 5 
2085 1 1 2 5 
2086 2 1 2.5 5.5 
2087 1 1.5 2 5.5 
2088 2 1.5 2.5 5 
2089 1 2 2 5 
2090 1 2 2.5 5.5 
2091 1 2.5 2 5.5 
2092 2 2.5 2.5 5 
2093 1 3 2 5 
2094 1 3 2.5 5.5 
2095 1 3.5 2 5.5 
2096 2 3.5 2.5 5 
2097 1 4 2 5 
2098 1 4 2.5 5.5 
2099 1 4.5 2 5.5 
2100 1 4.5 2.5 5 
2101 2 5 2 5 
2102 1 5 2.5 5.5 
2103 1 5.5 2 5.5 
2104 1 5.5 2.5 5 
2105 1 6 2 5 
2106 1 6 2.5 5.5 
2107 1 6.5 2 5.5 
2108 2 6.5 2.5 5 
2109 1 7 2 5 
2110 1 7 2.5 5.5 
2111 1 7.5 2 5.5 
2112 2 7.5 2.5 5 
2113 1 8 2 5 
2114 1 8 2.5 5.5 
2115 2 8.5 2 5.5 
2116 2 8.5 2.5 5 
2117 2 9 2 5 
2118 1 9 2.5 5.5 
2119 1 9.5 2 5.5 
2120 2 9.5 2.5 5 
2121 1 0 3 5 
2122 1 0 3.5 5.5 
2123 1 0.5 3 5.5 
2124 1 0.5 3.5 5 
2125 1 1 3 5 
2126 1 1 3.5 5.5 
2127 1 1.5 3 5.5 
2128 1 1.5 3.5 5 
2129 2 2 3 5 
2130 2 2 3.5 5.5 
2131 2 2.5 3 5.5 
2132 1 2.5 3.5 5 
2133 1 3 3 5 
2134 2 3 3.5 5.5 
2135 2 3.5 3 5.5 
2136 1 3.5 3.5 5 
2137 1 4 3 5 
2138 1 4 3.5 5.5 
2139 1 4.5 3 5.5 
2140 1 4.5 3.5 5 
2141 1 5 3 5 
2142 1 5 3.5 5.5 
2143 1 5.5 3 5.5 
2144 1 5.5 3.5 5 
2145 2 6 3 5 
2146 2 6 3.5 5.5 
2147 1 6.5 3 5.5 
2148 1 6.5 3.5 5 
2149 1 7 3 5 
2150 1 7 3.5 5.5 
2151 1 7.5 3 5.5 
2152 1 7.5 3.5 5 
2153 1 8 3 5 
2154 1 8 3.5 5.5 
2155 1 8.5 3 5.5 
2156 1 8.5 3.5 5 
2157 1 9 3 5 
2158 1 9 3.5 5.5 
2159 1 9.5 3 5.5 
2160 1 9.5 3.5 5 
2161 1 0 4 5 
2162 1 0 4.5 5.5 
2163 1 0.5 4 5.5 
2164 1 0.5 4.5 5 
2165 2 1 4 5 
2166 2 1 4.5 5.5 
2167 1 1.5 4 5.5 
2168 1 1.5 4.5 5 
2169 1 2 4 5 
2170 1 2 4.5 5.5 
2171 1 2.5 4 5.5 
2172 1 2.5 4.5 5 
2173 2 3 4 5 
2174 1 3 4.5 5.5 
2175 2 3.5 4 5.5 
2176 2 3.5 4.5 5 
2177 1 4 4 5 
2178 1 4 4.5 5.5 
2179 1 4.5 4 5.5 
2180 1 4.5 4.5 5 
2181 1 5 4 5 
2182 1 5 4.5 5.5 
2183 1 5.5 4 5.5 
2184 1 5.5 4.5 5 
2185 1 6 4 5 
2186 1 6 4.5 5.5 
2187 1 6.5 4 5.5 
2188 2 6.5 4.5 5 
2189 1 7 4 5 
2190 2 7 4.5 5.5 
2191 1 7.5 4 5.5 
2192 1 7.5 4.5 5 
2193 1 8 4 5 
2194 2 8 4.5 5.5 
2195 1 8.5 4 5.5 
2196 2 8.5 4.5 5 
2197 1 9 4 5 
2198 1 9 4.5 5.5 
2199 1 9.5 4 5.5 
2200 1 9.5 4.5 5 
2201 1 0 5 5 
2202 1 0 5.5 5.5 
2203 1 0.5 5 5.5 
2204 1 0.5 5.5 5 
2205 1 1 5 5 
2206 2 1 5.5 5.5 
2207 1 1.5 5 5.5 
2208 1 1.5 5.5 5 
2209 2 2 5 5 
2210 1 2 5.5 5.5 
2211 1 2.5 5 5.5 
2212 1 2.5 5.5 5 
2213 1 3 5 5 
2214 1 3 5.5 5.5 
2215 1 3.5 5 5.5 
2216 1 3.5 5.5 5 
2217 2 4 5 5 
2218 2 4 5.5 5.5 
2219 1 4.5 5 5.5 
2220 1 4.5 5.5 5 
2221 1 5 5 5 
2222 2 5 5.5 5.5 
2223 1 5.5 5 5.5 
2224 1 5.5 5.5 5 
2225 1 6 5 5 
2226 1 6 5.5 5.5 
2227 2 6.5 5 5.5 
2228 2 6.5 5.5 5 
2229 1 7 5 5 
2230 1 7 5.5 5.5 
2231 1 7.5 5 5.5 
2232 1 7.5 5.5 5 
2233 2 8 5 5 
2234 2 8 5.5 5.5 
2235 1 8.5 5 5.5 
2236 2 8.5 5.5 5 
2237 2 9 5 5 
2238 1 9 5.5 5.5 
2239 1 9.5 5 5.5 
2240 1 9.5 5.5 5 
2241 1 0 6 5 
2242 1 0 6.5 5.5 
2243 1 0.5 6 5.5 
2244 1 0.5 6.5 5 
2245 2 1 6 5 
2246 2 1 6.5 5.5 
2247 1 1.5 6 5.5 
2248 1 1.5 6.5 5 
2249 1 2 6 5 
2250 1 2 6.5 5.5 
2251 2 2.5 6 5.5 
2252 2 2.5 6.5 5 
2253 2 3 6 5 
2254 2 3 6.5 5.5 
2255 2 3.5 6 5.5 
2256 1 3.5 6.5 5 
2257 2 4 6 5 
2258 2 4 6.5 5.5 
2259 1 4.5 6 5.5 
2260 1 4.5 6.5 5 
2261 2 5 6 5 
2262 2 5 6.5 5.5 
2263 1 5.5 6 5.5 
2264 1 5.5 6.5 5 
2265 1 6 6 5 
2266 2 6 6.5 5.5 
2267 2 6.5 6 5.5 
2268 1 6.5 6.5 5 
2269 2 7 6 5 
2270 2 7 6.5 5.5 
2271 1 7.5 6 5.5 
2272 2 7.5 6.5 5 
2273 1 8 6 5 
2274 1 8 6.5 5.5 
2275 1 8.5 6 5.5 
2276 2 8.5 6.5 5 
2277 1 9 6 5 
2278 1 9 6.5 5.5 
2279 1 9.5 6 5.5 
2280 1 9.5 6.5 5 
2281 1 0 7 5 
2282 1 0 7.5 5.5 
2283 2 0.5 7 5.5 
2284 1 0.5 7.5 5 
2285 1 1 7 5 
2286 1 1 7.5 5.5 
2287 1 1.5 7 5.5 
2288 1 1.5 7.5 5 
2289 1 2 7 5 
2290 2 2 7.5 5.5 
2291 2 2.5 7 5.5 
2292 2 2.5 7.5 5 
2293 1 3 7 5 
2294 1 3 7.5 5.5 
2295 1 3.5 7 5.5 
2296 1 3.5 7.5 5 
2297 1 4 7 5 
2298 1 4 7.5 5.5 
2299 2 4.5 7 5.5 
2300 1 4.5 7.5 5 
2301 1 5 7 5 
2302 2 5 7.5 5.5 
2303 1 5.5 7 5.5 
2304 1 5.5 7.5 5 
2305 2 6 7 5 
2306 1 6 7.5 5.5 
2307 1 6.5 7 5.5 
2308 1 6.5 7.5 5 
2309 1 7 7 5 
2310 2 7 7.5 5.5 
2311 1 7.5 7 5.5 
2312 1 7.5 7.5 5 
2313 1 8 7 5 
2314 1 8 7.5 5.5 
2315 1 8.5 7 5.5 
2316 1 8.5 7.5 5 
2317 2 9 7 5 
2318 1 9 7.5 5.5 
2319 1 9.5 7 5.5 
2320 1 9.5 7.5 5 
2321 1 0 8 5 
2322 1 0 8.5 5.5 
2323 1 0.5 8 5.5 
2324 1 0.5 8.5 5 
2325 2 1 8 5 
2326 1 1 8.5 5.5 
2327 1 1.5 8 5.5 
2328 1 1.5 8.5 5 
2329 1 2 8 5 
2330 1 2 8.5 5.5 
2331 1 2.5 8 5.5 
2332 1 2.5 8.5 5 
2333 2 3 8 5 
2334 1 3 8.5 5.5 
2335 1 3.5 8 5.5 
2336 1 3.5 8.5 5 
2337 1 4 8 5 
2338 1 4 8.5 5.5 
2339 1 4.5 8 5.5 
2340 2 4.5 8.5 5 
2341 1 5 8 5 
2342 1 5 8.5 5.5 
2343 2 5.5 8 5.5 
2344 1 5.5 8.5 5 
2345 1 6 8 5 
2346 1 6 8.5 5.5 
2347 2 6.5 8 5.5 
2348 1 6.5 8.5 5 
2349 2 7 8 5 
2350 2 7 8.5 5.5 
2351 1 7.5 8 5.5 
2352 1 7.5 8.5 5 
2353 1 8 8 5 
2354 1 8 8.5 5.5 
2355 1 8.5 8 5.5 
2356 1 8.5 8.5 5 
2357 1 9 8 5 
2358 2 9 8.5 5.5 
2359 2 9.5 8 5.5 
2360 1 9.5 8.5 5 
2361 1 0 9 5 
2362 1 0 9.5 5.5 
2363 1 0.5 9 5.5 
2364 1 0.5 9.5 5 
2365 1 1 9 5 
2366 1 1 9.5 5.5 
2367 1 1.5 9 5.5 
2368 2 1.5 9.5 5 
2369 1 2 9 5 
2370 1 2 9.5 5.5 
2371 1 2.5 9 5.5 
2372 1 2.5 9.5 5 
2373 2 3 9 5 
2374 1 3 9.5 5.5 
2375 2 3.5 9 5.5 
2376 1 3.5 9.5 5 
2377 1 4 9 5 
2378 1 4 9.5 5.5 
2379 1 4.5 9 5.5 
2380 1 4.5 9.5 5 
2381 1 5 9 5 
2382 2 5 9.5 5.5 
2383 1 5.5 9 5.5 
2384 1 5.5 9.5 5 
2385 1 6 9 5 
2386 2 6 9.5 5.5 
2387 2 6.5 9 5.5 
2388 1 6.5 9.5 5 
2389 1 7 9 5 
2390 1 7 9.5 5.5 
2391 1 7.5 9 5.5 
2392 1 7.5 9.5 5 
2393 2 8 9 5 
2394 1 8 9.5 5.5 
2395 1 8.5 9 5.5 
2396 1 8.5 9.5 5 
2397 1 9 9 5 
2398 1 9 9.5 5.5 
2399 1 9.5 9 5.5 
2400 1 9.5 9.5 5 
2401 1 0 0 6 
2402 1 0 0.5 6.5 
2403 1 0.5 0 6.5 
2404 2 0.5 0.5 6 
2405 1 1 0 6 
2406 1 1 0.5 6.5 
2407 1 1.5 0 6.5 
2408 1 1.5 0.5 6 
2409 1 2 0 6 
2410 1 2 0.5 6.5 
2411 2 2.5 0 6.5 
2412 2 2.5 0.5 6 
2413 2 3 0 6 
2414 2 3 0.5 6.5 
2415 1 3.5 0 6.5 
2416 1 3.5 0.5 6 
2417 2 4 0 6 
2418 2 4 0.5 6.5 
2419 1 4.5 0 6.5 
2420 1 4.5 0.5 6 
2421 1 5 0 6 
2422 1 5 0.5 6.5 
2423 2 5.5 0 6.5 
2424 1 5.5 0.5 6 
2425 2 6 0 6 
2426 1 6 0.5 6.5 
2427 1 6.5 0 6.5 
2428 2 6.5 0.5 6 
2429 2 7 0 6 
2430 2 7 0.5 6.5 
2431 2 7.5 0 6.5 
2432 2 7.5 0.5 6 
2433 1 8 0 6 
2434 1 8 0.5 6.5 
2435 1 8.5 0 6.5 
2436 1 8.5 0.5 6 
2437 2 9 0 6 
2438 1 9 0.5 6.5 
2439 2 9.5 0 6.5 
2440 1 9.5 0.5 6 
2441 1 0 1 6 
2442 2 0 1.5 6.5 
2443 1 0.5 1 6.5 
2444 2 0.5 1.5 6 
2445 2 1 1 6 
2446 2 1 1.5 6.5 
2447 1 1.5 1 6.5 
2448 1 1.5 1.5 6 
2449 1 2 1 6 
2450 1 2 1.5 6.5 
2451 1 2.5 1 6.5 
2452 2 2.5 1.5 6 
2453 1 3 1 6 
2454 1 3 1.5 6.5 
2455 1 3.5 1 6.5 
2456 2 3.5 1.5 6 
2457 1 4 1 6 
2458 2 4 1.5 6.5 
2459 1 4.5 1 6.5 
2460 2 4.5 1.5 6 
2461 1 5 1 6 
2462 2 5 1.5 6.5 
2463 1 5.5 1 6.5 
2464 1 5.5 1.5 6 
2465 1 6 1 6 
2466 1 6 1.5 6.5 
2467 1 6.5 1 6.5 
2468 2 6.5 1.5 6 
2469 1 7 1 6 
2470 1 7 1.5 6.5 
2471 2 7.5 1 6.5 
2472 2 7.5 1.5 6 
2473 1 8 1 6 
2474 1 8 1.5 6.5 
2475 1 8.5 1 6.5 
2476 1 8.5 1.5 6 
2477 1 9 1 6 
2478 1 9 1.5 6.5 
2479 1 9.5 1 6.5 
2480 2 9.5 1.5 6 
2481 1 0 2 6 
2482 1 0 2.5 6.5 
2483 1 0.5 2 6.5 
2484 2 0.5 2.5 6 
2485 1 1 2 6 
2486 1 1 2.5 6.5 
2487 1 1.5 2 6.5 
2488 1 1.5 2.5 6 
2489 2 2 2 6 
2490 2 2 2.5 6.5 
2491 1 2.5 2 6.5 
2492 1 2.5 2.5 6 
2493 2 3 2 6 
2494 1 3 2.5 6.5 
2495 1 3.5 2 6.5 
2496 2 3.5 2.5 6 
2497 2 4 2 6 
2498 2 4 2.5 6.5 
2499 1 4.5 2 6.5 
2500 1 4.5 2.5 6 
2501 1 5 2 6 
2502 1 5 2.5 6.5 
2503 1 5.5 2 6.5 
2504 1 5.5 2.5 6 
2505 1 6 2 6 
2506 1 6 2.5 6.5 
2507 1 6.5 2 6.5 
2508 1 6.5 2.5 6 
2509 1 7 2 6 
2510 1 7 2.5 6.5 
2511 2 7.5 2 6.5 
2512 1 7.5 2.5 6 
2513 1 8 2 6 
2514 1 8 2.5 6.5 
2515 1 8.5 2 6.5 
2516 1 8.5 2.5 6 
2517 1 9 2 6 
2518 1 9 2.5 6.5 
2519 1 9.5 2 6.5 
2520 1 9.5 2.5 6 
2521 1 0 3 6 
2522 1 0 3.5 6.5 
2523 2 0.5 3 6.5 
2524 1 0.5 3.5 6 
2525 1 1 3 6 
2526 1 1 3.5 6.5 
2527 1 1.5 3 6.5 
2528 1 1.5 3.5 6 
2529 1 2 3 6 
2530 1 2 3.5 6.5 
2531 1 2.5 3 6.5 
2532 1 2.5 3.5 6 
2533 2 3 3 6 
2534 1 3 3.5 6.5 
2535 1 3.5 3 6.5 
2536 2 3.5 3.5 6 
2537 1 4 3 6 
2538 1 4 3.5 6.5 
2539 1 4.5 3 6.5 
2540 1 4.5 3.5 6 
2541 2 5 3 6 
2542 2 5 3.5 6.5 
2543 1 5.5 3 6.5 
2544 1 5.5 3.5 6 
2545 1 6 3 6 
2546 1 6 3.5 6.5 
2547 2 6.5 3 6.5 
2548 1 6.5 3.5 6 
2549 1 7 3 6 
2550 1 7 3.5 6.5 
2551 1 7.5 3 6.5 
2552 1 7.5 3.5 6 
2553 1 8 3 6 
2554 1 8 3.5 6.5 
2555 1 8.5 3 6.5 
2556 1 8.5 3.5 6 
2557 1 9 3 6 
2558 1 9 3.5 6.5 
2559 1 9.5 3 6.5 
2560 1 9.5 3.5 6 
2561 1 0 4 6 
2562 1 0 4.5 6.5 
2563 1 0.5 4 6.5 
2564 2 0.5 4.5 6 
2565 2 1 4 6 
2566 2 1 4.5 6.5 
2567 1 1.5 4 6.5 
2568 1 1.5 4.5 6 
2569 2 2 4 6 
2570 1 2 4.5 6.5 
2571 1 2.5 4 6.5 
2572 2 2.5 4.5 6 
2573 1 3 4 6 
2574 1 3 4.5 6.5 
2575 1 3.5 4 6.5 
2576 1 3.5 4.5 6 
2577 2 4 4 6 
2578 2 4 4.5 6.5 
2579 2 4.5 4 6.5 
2580 1 4.5 4.5 6 
2581 1 5 4 6 
2582 1 5 4.5 6.5 
2583 2 5.5 4 6.5 
2584 1 5.5 4.5 6 
2585 1 6 4 6 
2586 1 6 4.5 6.5 
2587 1 6.5 4 6.5 
2588 1 6.5 4.5 6 
2589 1 7 4 6 
2590 2 7 4.5 6.5 
2591 2 7.5 4 6.5 
2592 1 7.5 4.5 6 
2593 1 8 4 6 
2594 1 8 4.5 6.5 
2595 1 8.5 4 6.5 
2596 1 8.5 4.5 6 
2597 1 9 4 6 
2598 1 9 4.5 6.5 
2599 1 9.5 4 6.5 
2600 1 9.5 4.5 6 
2601 1 0 5 6 
2602 1 0 5.5 6.5 
2603 1 0.5 5 6.5 
2604 1 0.5 5.5 6 
2605 1 1 5 6 
2606 1 1 5.5 6.5 
2607 1 1.5 5 6.5 
2608 1 1.5 5.5 6 
2609 1 2 5 6 
2610 2 2 5.5 6.5 
2611 2 2.5 5 6.5 
2612 1 2.5 5.5 6 
2613 1 3 5 6 
2614 1 3 5.5 6.5 
2615 1 3.5 5 6.5 
2616 2 3.5 5.5 6 
2617 2 4 5 6 
2618 2 4 5.5 6.5 
2619 2 4.5 5 6.5 
2620 2 4.5 5.5 6 
2621 1 5 5 6 
2622 1 5 5.5 6.5 
2623 1 5.5 5 6.5 
2624 1 5.5 5.5 6 
2625 1 6 5 6 
2626 2 6 5.5 6.5 
2627 1 6.5 5 6.5 
2628 1 6.5 5.5 6 
2629 1 7 5 6 
2630 1 7 5.5 6.5 
2631 1 7.5 5 6.5 
2632 2 7.5 5.5 6 
2633 1 8 5 6 
2634 1 8 5.5 6.5 
2635 1 8.5 5 6.5 
2636 2 8.5 5.5 6 
2637 1 9 5 6 
2638 1 9 5.5 6.5 
2639 1 9.5 5 6.5 
2640 1 9.5 5.5 6 
2641 1 0 6 6 
2642 1 0 6.5 6.5 
2643 1 0.5 6 6.5 
2644 1 0.5 6.5 6 
2645 1 1 6 6 
2646 1 1 6.5 6.5 
2647 1 1.5 6 6.5 
2648 1 1.5 6.5 6 
2649 1 2 6 6 
2650 1 2 6.5 6.5 
2651 1 2.5 6 6.5 
2652 1 2.5 6.5 6 
2653 1 3 6 6 
2654 1 3 6.5 6.5 
2655 2 3.5 6 6.5 
2656 2 3.5 6.5 6 
2657 2 4 6 6 
2658 1 4 6.5 6.5 
2659 1 4.5 6 6.5 
2660 1 4.5 6.5 6 
2661 2 5 6 6 
2662 1 5 6.5 6.5 
2663 1 5.5 6 6.5 
2664 1 5.5 6.5 6 
2665 1 6 6 6 
2666 1 6 6.5 6.5 
2667 1 6.5 6 6.5 
2668 1 6.5 6.5 6 
2669 1 7 6 6 
2670 1 7 6.5 6.5 
2671 1 7.5 6 6.5 
2672 2 7.5 6.5 6 
2673 1 8 6 6 
2674 1 8 6.5 6.5 
2675 2 8.5 6 6.5 
2676 1 8.5 6.5 6 
2677 1 9 6 6 
2678 1 9 6.5 6.5 
2679 2 9.5 6 6.5 
2680 2 9.5 6.5 6 
2681 1 0 7 6 
2682 1 0 7.5 6.5 
2683 2 0.5 7 6.5 
2684 1 0.5 7.5 6 
2685 1 1 7 6 
2686 2 1 7.5 6.5 
2687 1 1.5 7 6.5 
2688 2 1.5 7.5 6 
2689 1 2 7 6 
2690 1 2 7.5 6.5 
2691 1 2.5 7 6.5 
2692 1 2.5 7.5 6 
2693 1 3 7 6 
2694 1 3 7.5 6.5 
2695 2 3.5 7 6.5 
2696 1 3.5 7.5 6 
2697 1 4 7 6 
2698 1 4 7.5 6.5 
2699 1 4.5 7 6.5 
2700 1 4.5 7.5 6 
2701 1 5 7 6 
2702 1 5 7.5 6.5 
2703 1 5.5 7 6.5 
2704 2 5.5 7.5 6 
2705 1 6 7 6 
2706 2 6 7.5 6.5 
2707 1 6.5 7 6.5 
2708 2 6.5 7.5 6 
2709 1 7 7 6 
2710 2 7 7.5 6.5 
2711 1 7.5 7 6.5 
2712 1 7.5 7.5 6 
2713 1 8 7 6 
2714 2 8 7.5 6.5 
2715 2 8.5 7 6.5 
2716 1 8.5 7.5 6 
2717 1 9 7 6 
2718 1 9 7.5 6.5 
2719 2 9.5 7 6.5 
2720 1 9.5 7.5 6 
2721 1 0 8 6 
2722 1 0 8.5 6.5 
2723 1 0.5 8 6.5 
2724 2 0.5 8.5 6 
2725 1 1 8 6 
2726 1 1 8.5 6.5 
2727 2 1.5 8 6.5 
2728 1 1.5 8.5 6 
2729 2 2 8 6 
2730 1 2 8.5 6.5 
2731 2 2.5 8 6.5 
2732 1 2.5 8.5 6 
2733 1 3 8 6 
2734 2 3 8.5 6.5 
2735 2 3.5 8 6.5 
2736 1 3.5 8.5 6 
2737 1 4 8 6 
2738 2 4 8.5 6.5 
2739 1 4.5 8 6.5 
2740 2 4.5 8.5 6 
2741 1 5 8 6 
2742 1 5 8.5 6.5 
2743 1 5.5 8 6.5 
2744 1 5.5 8.5 6 
2745 2 6 8 6 
2746 1 6 8.5 6.5 
2747 1 6.5 8 6.5 
2748 1 6.5 8.5 6 
2749 1 7 8 6 
2750 1 7 8.5 6.5 
2751 2 7.5 8 6.5 
2752 1 7.5 8.5 6 
2753 2 8 8 6 
2754 1 8 8.5 6.5 
2755 1 8.5 8 6.5 
2756 2 8.5 8.5 6 
2757 1 9 8 6 
2758 2 9 8.5 6.5 
2759 1 9.5 8 6.5 
2760 1 9.5 8.5 6 
2761 1 0 9 6 
2762 2 0 9.5 6.5 
2763 1 0.5 9 6.5 
2764 1 0.5 9.5 6 
2765 2 1 9 6 
2766 2 1 9.5 6.5 
2767 1 1.5 9 6.5 
2768 1 1.5 9.5 6 
2769 2 2 9 6 
2770 1 2 9.5 6.5 
2771 1 2.5 9 6.5 
2772 2 2.5 9.5 6 
2773 2 3 9 6 
2774 2 3 9.5 6.5 
2775 2 3.5 9 6.5 
2776 1 3.5 9.5 6 
2777 2 4 9 6 
2778 1 4 9.5 6.5 
2779 1 4.5 9 6.5 
2780 2 4.5 9.5 6 
2781 1 5 9 6 
2782 1 5 9.5 6.5 
2783 1 5.5 9 6.5 
2784 1 5.5 9.5 6 
2785 1 6 9 6 
2786 1 6 9.5 6.5 
2787 1 6.5 9 6.5 
2788 1 6.5 9.5 6 
2789 2 7 9 6 
2790 1 7 9.5 6.5 
2791 2 7.5 9 6.5 
2792 1 7.5 9.5 6 
2793 1 8 9 6 
2794 2 8 9.5 6.5 
2795 1 8.5 9 6.5 
2796 1 8.5 9.5 6 
2797 1 9 9 6 
2798 1 9 9.5 6.5 
2799 2 9.5 9 6.5 
2800 1 9.5 9.5 6 
2801 2 0 0 7 
2802 1 0 0.5 7.5 
2803 2 0.5 0 7.5 
2804 1 0.5 0.5 7 
2805 1 1 0 7 
2806 1 1 0.5 7.5 
2807 1 1.5 0 7.5 
2808 1 1.5 0.5 7 
2809 1 2 0 7 
2810 1 2 0.5 7.5 
2811 1 2.5 0 7.5 
2812 1 2.5 0.5 7 
2813 2 3 0 7 
2814 2 3 0.5 7.5 
2815 1 3.5 0 7.5 
2816 2 3.5 0.5 7 
2817 2 4 0 7 
2818 1 4 0.5 7.5 
2819 1 4.5 0 7.5 
2820 1 4.5 0.5 7 
2821 1 5 0 7 
2822 1 5 0.5 7.5 
2823 1 5.5 0 7.5 
2824 2 5.5 0.5 7 
2825 1 6 0 7 
2826 2 6 0.5 7.5 
2827 1 6.5 0 7.5 
2828 1 6.5 0.5 7 
2829 2 7 0 7 
2830 2 7 0.5 7.5 
2831 2 7.5 0 7.5 
2832 1 7.5 0.5 7 
2833 1 8 0 7 
2834 2 8 0.5 7.5 
2835 1 8.5 0 7.5 
2836 1 8.5 0.5 7 
2837 2 9 0 7 
2838 2 9 0.5 7.5 
2839 1 9.5 0 7.5 
2840 1 9.5 0.5 7 
2841 2 0 1 7 
2842 2 0 1.5 7.5 
2843 1 0.5 1 7.5 
2844 1 0.5 1.5 7 
2845 2 1 1 7 
2846 1 1 1.5 7.5 
2847 2 1.5 1 7.5 
2848 2 1.5 1.5 7 
2849 1 2 1 7 
2850 1 2 1.5 7.5 
2851 2 2.5 1 7.5 
2852 1 2.5 1.5 7 
2853 1 3 1 7 
2854 2 3 1.5 7.5 
2855 1 3.5 1 7.5 
2856 1 3.5 1.5 7 
2857 2 4 1 7 
2858 2 4 1.5 7.5 
2859 1 4.5 1 7.5 
2860 1 4.5 1.5 7 
2861 1 5 1 7 
2862 1 5 1.5 7.5 
2863 2 5.5 1 7.5 
2864 2 5.5 1.5 7 
2865 2 6 1 7 
2866 1 6 1.5 7.5 
2867 1 6.5 1 7.5 
2868 1 6.5 1.5 7 
2869 2 7 1 7 
2870 2 7 1.5 7.5 
2871 1 7.5 1 7.5 
2872 1 7.5 1.5 7 
2873 1 8 1 7 
2874 1 8 1.5 7.5 
2875 2 8.5 1 7.5 
2876 1 8.5 1.5 7 
2877 2 9 1 7 
2878 1 9 1.5 7.5 
2879 1 9.5 1 7.5 
2880 1 9.5 1.5 7 
2881 1 0 2 7 
2882 2 0 2.5 7.5 
2883 2 0.5 2 7.5 
2884 1 0.5 2.5 7 
2885 1 1 2 7 
2886 1 1 2.5 7.5 
2887 1 1.5 2 7.5 
2888 1 1.5 2.5 7 
2889 1 2 2 7 
2890 1 2 2.5 7.5 
2891 2 2.5 2 7.5 
2892 1 2.5 2.5 7 
2893 2 3 2 7 
2894 2 3 2.5 7.5 
2895 1 3.5 2 7.5 
2896 1 3.5 2.5 7 
2897 1 4 2 7 
2898 2 4 2.5 7.5 
2899 2 4.5 2 7.5 
2900 2 4.5 2.5 7 
2901 2 5 2 7 
2902 2 5 2.5 7.5 
2903 2 5.5 2 7.5 
2904 2 5.5 2.5 7 
2905 2 6 2 7 
2906 1 6 2.5 7.5 
2907 2 6.5 2 7.5 
2908 1 6.5 2.5 7 
2909 2 7 2 7 
2910 1 7 2.5 7.5 
2911 1 7.5 2 7.5 
2912 2 7.5 2.5 7 
2913 1 8 2 7 
2914 1 8 2.5 7.5 
2915 1 8.5 2 7.5 
2916 2 8.5 2.5 7 
2917 1 9 2 7 
2918 1 9 2.5 7.5 
2919 1 9.5 2 7.5 
2920 1 9.5 2.5 7 
2921 1 0 3 7 
2922 2 0 3.5 7.5 
2923 1 0.5 3 7.5 
2924 1 0.5 3.5 7 
2925 2 1 3 7 
2926 1 1 3.5 7.5 
2927 1 1.5 3 7.5 
2928 2 1.5 3.5 7 
2929 1 2 3 7 
2930 1 2 3.5 7.5 
2931 1 2.5 3 7.5 
2932 1 2.5 3.5 7 
2933 1 3 3 7 
2934 1 3 3.5 7.5 
2935 1 3.5 3 7.5 
2936 2 3.5 3.5 7 
2937 1 4 3 7 
2938 1 4 3.5 7.5 
2939 1 4.5 3 7.5 
2940 1 4.5 3.5 7 
2941 1 5 3 7 
2942 2 5 3.5 7.5 
2943 1 5.5 3 7.5 
2944 1 5.5 3.5 7 
2945 1 6 3 7 
2946 2 6 3.5 7.5 
2947 2 6.5 3 7.5 
2948 1 6.5 3.5 7 
2949 1 7 3 7 
2950 2 7 3.5 7.5 
2951 2 7.5 3 7.5 
2952 1 7.5 3.5 7 
2953 1 8 3 7 
2954 1 8 3.5 7.5 
2955 1 8.5 3 7.5 
2956 1 8.5 3.5 7 
2957 2 9 3 7 
2958 1 9 3.5 7.5 
2959 2 9.5 3 7.5 
2960 1 9.5 3.5 7 
2961 1 0 4 7 
2962 1 0 4.5 7.5 
2963 2 0.5 4 7.5 
2964 1 0.5 4.5 7 
2965 2 1 4 7 
2966 2 1 4.5 7.5 
2967 1 1.5 4 7.5 
2968 1 1.5 4.5 7 
2969 2 2 4 7 
2970 1 2 4.5 7.5 
2971 1 2.5 4 7.5 
2972 2 2.5 4.5 7 
2973 1 3 4 7 
2974 2 3 4.5 7.5 
2975 2 3.5 4 7.5 
2976 1 3.5 4.5 7 
2977 1 4 4 7 
2978 1 4 4.5 7.5 
2979 1 4.5 4 7.5 
2980 2 4.5 4.5 7 
2981 1 5 4 7 
2982 1 5 4.5 7.5 
2983 1 5.5 4 7.5 
2984 1 5.5 4.5 7 
2985 2 6 4 7 
2986 1 6 4.5 7.5 
2987 2 6.5 4 7.5 
2988 1 6.5 4.5 7 
2989 1 7 4 7 
2990 1 7 4.5 7.5 
2991 2 7.5 4 7.5 
2992 1 7.5 4.5 7 
2993 1 8 4 7 
2994 2 8 4.5 7.5 
2995 1 8.5 4 7.5 
2996 2 8.5 4.5 7 
2997 1 9 4 7 
2998 1 9 4.5 7.5 
2999 2 9.5 4 7.5 
3000 1 9.5 4.5 7 
3001 2 0 5 7 
3002 2 0 5.5 7.5 
3003 2 0.5 5 7.5 
3004 2 0.5 5.5 7 
3005 1 1 5 7 
3006 1 1 5.5 7.5 
3007 1 1.5 5 7.5 
3008 1 1.5 5.5 7 
3009 2 2 5 7 
3010 2 2 5.5 7.5 
3011 1 2.5 5 7.5 
3012 1 2.5 5.5 7 
3013 1 3 5 7 
3014 1 3 5.5 7.5 
3015 1 3.5 5 7.5 
3016 1 3.5 5.5 7 
3017 2 4 5 7 
3018 1 4 5.5 7.5 
3019 1 4.5 5 7.5 
3020 1 4.5 5.5 7 
3021 2 5 5 7 
3022 1 5 5.5 7.5 
3023 1 5.5 5 7.5 
3024 1 5.5 5.5 7 
3025 2 6 5 7 
3026 1 6 5.5 7.5 
3027 1 6.5 5 7.5 
3028 2 6.5 5.5 7 
3029 2 7 5 7 
3030 2 7 5.5 7.5 
3031 2 7.5 5 7.5 
3032 2 7.5 5.5 7 
3033 2 8 5 7 
3034 1 8 5.5 7.5 
3035 1 8.5 5 7.5 
3036 1 8.5 5.5 7 
3037 2 9 5 7 
3038 2 9 5.5 7.5 
3039 1 9.5 5 7.5 
3040 2 9.5 5.5 7 
3041 2 0 6 7 
3042 1 0 6.5 7.5 
3043 1 0.5 6 7.5 
3044 1 0.5 6.5 7 
3045 2 1 6 7 
3046 2 1 6.5 7.5 
3047 1 1.5 6 7.5 
3048 2 1.5 6.5 7 
3049 1 2 6 7 
3050 2 2 6.5 7.5 
3051 2 2.5 6 7.5 
3052 2 2.5 6.5 7 
3053 2 3 6 7 
3054 2 3 6.5 7.5 
3055 1 3.5 6 7.5 
3056 1 3.5 6.5 7 
3057 1 4 6 7 
3058 1 4 6.5 7.5 
3059 2 4.5 6 7.5 
3060 2 4.5 6.5 7 
3061 1 5 6 7 
3062 2 5 6.5 7.5 
3063 2 5.5 6 7.5 
3064 1 5.5 6.5 7 
3065 1 6 6 7 
3066 2 6 6.5 7.5 
3067 2 6.5 6 7.5 
3068 1 6.5 6.5 7 
3069 1 7 6 7 
3070 2 7 6.5 7.5 
3071 1 7.5 6 7.5 
3072 1 7.5 6.5 7 
3073 2 8 6 7 
3074 1 8 6.5 7.5 
3075 1 8.5 6 7.5 
3076 1 8.5 6.5 7 
3077 1 9 6 7 
3078 2 9 6.5 7.5 
3079 1 9.5 6 7.5 
3080 1 9.5 6.5 7 
3081 1 0 7 7 
3082 1 0 7.5 7.5 
3083 1 0.5 7 7.5 
3084 1 0.5 7.5 7 
3085 2 1 7 7 
3086 1 1 7.5 7.5 
3087 2 1.5 7 7.5 
3088 2 1.5 7.5 7 
3089 1 2 7 7 
3090 2 2 7.5 7.5 
3091 1 2.5 7 7.5 
3092 1 2.5 7.5 7 
3093 2 3 7 7 
3094 1 3 7.5 7.5 
3095 2 3.5 7 7.5 
3096 1 3.5 7.5 7 
3097 1 4 7 7 
3098 2 4 7.5 7.5 
3099 1 4.5 7 7.5 
3100 1 4.5 7.5 7 
3101 1 5 7 7 
3102 1 5 7.5 7.5 
3103 1 5.5 7 7.5 
3104 1 5.5 7.5 7 
3105 1 6 7 7 
3106 1 6 7.5 7.5 
3107 1 6.5 7 7.5 
3108 1 6.5 7.5 7 
3109 2 7 7 7 
3110 2 7 7.5 7.5 
3111 1 7.5 7 7.5 
3112 2 7.5 7.5 7 
3113 1 8 7 7 
3114 2 8 7.5 7.5 
3115 1 8.5 7 7.5 
3116 2 8.5 7.5 7 
3117 1 9 7 7 
3118 2 9 7.5 7.5 
3119 2 9.5 7 7.5 
3120 1 9.5 7.5 7 
3121 1 0 8 7 
3122 2 0 8.5 7.5 
3123 1 0.5 8 7.5 
3124 1 0.5 8.5 7 
3125 1 1 8 7 
3126 2 1 8.5 7.5 
3127 2 1.5 8 7.5 
3128 1 1.5 8.5 7 
3129 2 2 8 7 
3130 1 2 8.5 7.5 
3131 2 2.5 8 7.5 
3132 1 2.5 8.5 7 
3133 1 3 8 7 
3134 1 3 8.5 7.5 
3135 1 3.5 8 7.5 
3136 2 3.5 8.5 7 
3137 1 4 8 7 
3138 1 4 8.5 7.5 
3139 1 4.5 8 7.5 
3140 1 4.5 8.5 7 
3141 2 5 8 7 
3142 2 5 8.5 7.5 
3143 1 5.5 8 7.5 
3144 1 5.5 8.5 7 
3145 2 6 8 7 
3146 2 6 8.5 7.5 
3147 1 6.5 8 7.5 
3148 1 6.5 8.5 7 
3149 1 7 8 7 
3150 1 7 8.5 7.5 
3151 1 7.5 8 7.5 
3152 1 7.5 8.5 7 
3153 1 8 8 7 
3154 2 8 8.5 7.5 
3155 1 8.5 8 7.5 
3156 2 8.5 8.5 7 
3157 2 9 8 7 
3158 1 9 8.5 7.5 
3159 1 9.5 8 7.5 
3160 1 9.5 8.5 7 
3161 2 0 9 7 
3162 2 0 9.5 7.5 
3163 1 0.5 9 7.5 
3164 1 0.5 9.5 7 
3165 1 1 9 7 
3166 2 1 9.5 7.5 
3167 1 1.5 9 7.5 
3168 1 1.5 9.5 7 
3169 2 2 9 7 
3170 1 2 9.5 7.5 
3171 2 2.5 9 7.5 
3172 1 2.5 9.5 7 
3173 2 3 9 7 
3174 1 3 9.5 7.5 
3175 2 3.5 9 7.5 
3176 1 3.5 9.5 7 
3177 1 4 9 7 
3178 1 4 9.5 7.5 
3179 2 4.5 9 7.5 
3180 1 4.5 9.5 7 
3181 1 5 9 7 
3182 1 5 9.5 7.5 
3183 1 5.5 9 7.5 
3184 1 5.5 9.5 7 
3185 2 6 9 7 
3186 2 6 9.5 7.5 
3187 1 6.5 9 7.5 
3188 1 6.5 9.5 7 
3189 1 7 9 7 
3190 1 7 9.5 7.5 
3191 1 7.5 9 7.5 
3192 1 7.5 9.5 7 
3193 2 8 9 7 
3194 1 8 9.5 7.5 
3195 1 8.5 9 7.5 
3196 1 8.5 9.5 7 
3197 2 9 9 7 
3198 1 9 9.5 7.5 
3199 2 9.5 9 7.5 
3200 1 9.5 9.5 7 
3201 1 0 0 8 
3202 1 0 0.5 8.5 
3203 2 0.5 0 8.5 
3204 1 0.5 0.5 8 
3205 1 1 0 8 
3206 1 1 0.5 8.5 
3207 2 1.5 0 8.5 
3208 1 1.5 0.5 8 
3209 1 2 0 8 
3210 2 2 0.5 8.5 
3211 1 2.5 0 8.5 
3212 1 2.5 0.5 8 
3213 2 3 0 8 
3214 2 3 0.5 8.5 
3215 1 3.5 0 8.5 
3216 2 3.5 0.5 8 
3217 2 4 0 8 
3218 1 4 0.5 8.5 
3219 1 4.5 0 8.5 
3220 1 4.5 0.5 8 
3221 2 5 0 8 
3222 2 5 0.5 8.5 
3223 2 5.5 0 8.5 
3224 1 5.5 0.5 8 
3225 1 6 0 8 
3226 1 6 0.5 8.5 
3227 1 6.5 0 8.5 
3228 2 6.5 0.5 8 
3229 1 7 0 8 
3230 1 7 0.5 8.5 
3231 2 7.5 0 8.5 
3232 1 7.5 0.5 8 
3233 1 8 0 8 
3234 2 8 0.5 8.5 
3235 1 8.5 0 8.5 
3236 1 8.5 0.5 8 
3237 2 9 0 8 
3238 2 9 0.5 8.5 
3239 2 9.5 0 8.5 
3240 1 9.5 0.5 8 
3241 1 0 1 8 
3242 2 0 1.5 8.5 
3243 1 0.5 1 8.5 
3244 1 0.5 1.5 8 
3245 1 1 1 8 
3246 2 1 1.5 8.5 
3247 1 1.5 1 8.5 
3248 1 1.5 1.5 8 
3249 1 2 1 8 
3250 1 2 1.5 8.5 
3251 2 2.5 1 8.5 
3252 2 2.5 1.5 8 
3253 1 3 1 8 
3254 2 3 1.5 8.5 
3255 2 3.5 1 8.5 
3256 2 3.5 1.5 8 
3257 1 4 1 8 
3258 1 4 1.5 8.5 
3259 1 4.5 1 8.5 
3260 2 4.5 1.5 8 
3261 2 5 1 8 
3262 1 5 1.5 8.5 
3263 1 5.5 1 8.5 
3264 1 5.5 1.5 8 
3265 1 6 1 8 
3266 1 6 1.5 8.5 
3267 1 6.5 1 8.5 
3268 2 6.5 1.5 8 
3269 2 7 1 8 
3270 2 7 1.5 8.5 
3271 1 7.5 1 8.5 
3272 1 7.5 1.5 8 
3273 1 8 1 8 
3274 1 8 1.5 8.5 
3275 2 8.5 1 8.5 
3276 2 8.5 1.5 8 
3277 2 9 1 8 
3278 1 9 1.5 8.5 
3279 1 9.5 1 8.5 
3280 2 9.5 1.5 8 
3281 2 0 2 8 
3282 1 0 2.5 8.5 
3283 1 0.5 2 8.5 
3284 2 0.5 2.5 8 
3285 2 1 2 8 
3286 2 1 2.5 8.5 
3287 1 1.5 2 8.5 
3288 1 1.5 2.5 8 
3289 2 2 2 8 
3290 2 2 2.5 8.5 
3291 1 2.5 2 8.5 
3292 1 2.5 2.5 8 
3293 2 3 2 8 
3294 2 3 2.5 8.5 
3295 2 3.5 2 8.5 
3296 1 3.5 2.5 8 
3297 2 4 2 8 
3298 1 4 2.5 8.5 
3299 2 4.5 2 8.5 
3300 2 4.5 2.5 8 
3301 1 5 2 8 
3302 1 5 2.5 8.5 
3303 1 5.5 2 8.5 
3304 2 5.5 2.5 8 
3305 2 6 2 8 
3306 1 6 2.5 8.5 
3307 1 6.5 2 8.5 
3308 1 6.5 2.5 8 
3309 2 7 2 8 
3310 1 7 2.5 8.5 
3311 1 7.5 2 8.5 
3312 2 7.5 2.5 8 
3313 1 8 2 8 
3314 1 8 2.5 8.5 
3315 1 8.5 2 8.5 
3316 1 8.5 2.5 8 
3317 2 9 2 8 
3318 2 9 2.5 8.5 
3319 2 9.5 2 8.5 
3320 1 9.5 2.5 8 
3321 2 0 3 8 
3322 2 0 3.5 8.5 
3323 2 0.5 3 8.5 
3324 1 0.5 3.5 8 
3325 2 1 3 8 
3326 2 1 3.5 8.5 
3327 1 1.5 3 8.5 
3328 2 1.5 3.5 8 
3329 1 2 3 8 
3330 1 2 3.5 8.5 
3331 1 2.5 3 8.5 
3332 2 2.5 3.5 8 
3333 1 3 3 8 
3334 2 3 3.5 8.5 
3335 1 3.5 3 8.5 
3336 1 3.5 3.5 8 
3337 1 4 3 8 
3338 1 4 3.5 8.5 
3339 2 4.5 3 8.5 
3340 2 4.5 3.5 8 
3341 2 5 3 8 
3342 2 5 3.5 8.5 
3343 1 5.5 3 8.5 
3344 1 5.5 3.5 8 
3345 2 6 3 8 
3346 2 6 3.5 8.5 
3347 2 6.5 3 8.5 
3348 1 6.5 3.5 8 
3349 1 7 3 8 
3350 2 7 3.5 8.5 
3351 2 7.5 3 8.5 
3352 2 7.5 3.5 8 
3353 2 8 3 8 
3354 1 8 3.5 8.5 
3355 2 8.5 3 8.5 
3356 1 8.5 3.5 8 
3357 2 9 3 8 
3358 1 9 3.5 8.5 
3359 1 9.5 3 8.5 
3360 1 9.5 3.5 8 
3361 1 0 4 8 
3362 1 0 4.5 8.5 
3363 2 0.5 4 8.5 
3364 1 0.5 4.5 8 
3365 1 1 4 8 
3366 1 1 4.5 8.5 
3367 2 1.5 4 8.5 
3368 2 1.5 4.5 8 
3369 1 2 4 8 
3370 1 2 4.5 8.5 
3371 1 2.5 4 8.5 
3372 1 2.5 4.5 8 
3373 2 3 4 8 
3374 2 3 4.5 8.5 
3375 2 3.5 4 8.5 
3376 1 3.5 4.5 8 
3377 1 4 4 8 
3378 1 4 4.5 8.5 
3379 2 4.5 4 8.5 
3380 1 4.5 4.5 8 
3381 1 5 4 8 
3382 2 5 4.5 8.5 
3383 2 5.5 4 8.5 
3384 2 5.5 4.5 8 
3385 1 6 4 8 
3386 1 6 4.5 8.5 
3387 2 6.5 4 8.5 
3388 2 6.5 4.5 8 
3389 1 7 4 8 
3390 2 7 4.5 8.5 
3391 2 7.5 4 8.5 
3392 1 7.5 4.5 8 
3393 2 8 4 8 
3394 2 8 4.5 8.5 
3395 1 8.5 4 8.5 
3396 1 8.5 4.5 8 
3397 1 9 4 8 
3398 1 9 4.5 8.5 
3399 2 9.5 4 8.5 
3400 1 9.5 4.5 8 
3401 2 0 5 8 
3402 2 0 5.5 8.5 
3403 2 0.5 5 8.5 
3404 1 0.5 5.5 8 
3405 2 1 5 8 
3406 1 1 5.5 8.5 
3407 2 1.5 5 8.5 
3408 1 1.5 5.5 8 
3409 1 2 5 8 
3410 1 2 5.5 8.5 
3411 1 2.5 5 8.5 
3412 2 2.5 5.5 8 
3413 2 3 5 8 
3414 1 3 5.5 8.5 
3415 2 3.5 5 8.5 
3416 1 3.5 5.5 8 
3417 1 4 5 8 
3418 1 4 5.5 8.5 
3419 2 4.5 5 8.5 
3420 2 4.5 5.5 8 
3421 2 5 5 8 
3422 1 5 5.5 8.5 
3423 1 5.5 5 8.5 
3424 1 5.5 5.5 8 
3425 1 6 5 8 
3426 1 6 5.5 8.5 
3427 1 6.5 5 8.5 
3428 1 6.5 5.5 8 
3429 2 7 5 8 
3430 2 7 5.5 8.5 
3431 2 7.5 5 8.5 
3432 1 7.5 5.5 8 
3433 1 8 5 8 
3434 1 8 5.5 8.5 
3435 1 8.5 5 8.5 
3436 1 8.5 5.5 8 
3437 2 9 5 8 
3438 2 9 5.5 8.5 
3439 2 9.5 5 8.5 
3440 1 9.5 5.5 8 
3441 2 0 6 8 
3442 1 0 6.5 8.5 
3443 1 0.5 6 8.5 
3444 1 0.5 6.5 8 
3445 1 1 6 8 
3446 1 1 6.5 8.5 
3447 2 1.5 6 8.5 
3448 1 1.5 6.5 8 
3449 1 2 6 8 
3450 1 2 6.5 8.5 
3451 2 2.5 6 8.5 
3452 1 2.5 6.5 8 
3453 2 3 6 8 
3454 1 3 6.5 8.5 
3455 1 3.5 6 8.5 
3456 2 3.5 6.5 8 
3457 1 4 6 8 
3458 1 4 6.5 8.5 
3459 2 4.5 6 8.5 
3460 2 4.5 6.5 8 
3461 2 5 6 8 
3462 1 5 6.5 8.5 
3463 1 5.5 6 8.5 
3464 1 5.5 6.5 8 
3465 1 6 6 8 
3466 1 6 6.5 8.5 
3467 2 6.5 6 8.5 
3468 1 6.5 6.5 8 
3469 1 7 6 8 
3470 2 7 6.5 8.5 
3471 1 7.5 6 8.5 
3472 2 7.5 6.5 8 
3473 1 8 6 8 
3474 1 8 6.5 8.5 
3475 1 8.5 6 8.5 
3476 1 8.5 6.5 8 
3477 1 9 6 8 
3478 1 9 6.5 8.5 
3479 1 9.5 6 8.5 
3480 2 9.5 6.5 8 
3481 1 0 7 8 
3482 1 0 7.5 8.5 
3483 1 0.5 7 8.5 
3484 2 0.5 7.5 8 
3485 1 1 7 8 
3486 2 1 7.5 8.5 
3487 2 1.5 7 8.5 
3488 1 1.5 7.5 8 
3489 1 2 7 8 
3490 1 2 7.5 8.5 
3491 1 2.5 7 8.5 
3492 2 2.5 7.5 8 
3493 1 3 7 8 
3494 1 3 7.5 8.5 
3495 2 3.5 7 8.5 
3496 2 3.5 7.5 8 
3497 2 4 7 8 
3498 2 4 7.5 8.5 
3499 1 4.5 7 8.5 
3500 1 4.5 7.5 8 
3501 2 5 7 8 
3502 2 5 7.5 8.5 
3503 1 5.5 7 8.5 
3504 2 5.5 7.5 8 
3505 2 6 7 8 
3506 1 6 7.5 8.5 
3507 1 6.5 7 8.5 
3508 1 6.5 7.5 8 
3509 1 7 7 8 
3510 1 7 7.5 8.5 
3511 2 7.5 7 8.5 
3512 2 7.5 7.5 8 
3513 1 8 7 8 
3514 2 8 7.5 8.5 
3515 1 8.5 7 8.5 
3516 2 8.5 7.5 8 
3517 1 9 7 8 
3518 1 9 7.5 8.5 
3519 1 9.5 7 8.5 
3520 2 9.5 7.5 8 
3521 1 0 8 8 
3522 1 0 8.5 8.5 
3523 2 0.5 8 8.5 
3524 1 0.5 8.5 8 
3525 1 1 8 8 
3526 1 1 8.5 8.5 
3527 2 1.5 8 8.5 
3528 2 1.5 8.5 8 
3529 2 2 8 8 
3530 2 2 8.5 8.5 
3531 1 2.5 8 8.5 
3532 1 2.5 8.5 8 
3533 1 3 8 8 
3534 1 3 8.5 8.5 
3535 1 3.5 8 8.5 
3536 1 3.5 8.5 8 
3537 1 4 8 8 
3538 1 4 8.5 8.5 
3539 1 4.5 8 8.5 
3540 1 4.5 8.5 8 
3541 1 5 8 8 
3542 1 5 8.5 8.5 
3543 1 5.5 8 8.5 
3544 1 5.5 8.5 8 
3545 2 6 8 8 
3546 1 6 8.5 8.5 
3547 1 6.5 8 8.5 
3548 1 6.5 8.5 8 
3549 2 7 8 8 
3550 2 7 8.5 8.5 
3551 1 7.5 8 8.5 
3552 1 7.5 8.5 8 
3553 1 8 8 8 
3554 1 8 8.5 8.5 
3555 1 8.5 8 8.5 
3556 1 8.5 8.5 8 
3557 2 9 8 8 
3558 1 9 8.5 8.5 
3559 2 9.5 8 8.5 
3560 2 9.5 8.5 8 
3561 1 0 9 8 
3562 1 0 9.5 8.5 
3563 1 0.5 9 8.5 
3564 1 0.5 9.5 8 
3565 1 1 9 8 
3566 2 1 9.5 8.5 
3567 1 1.5 9 8.5 
3568 2 1.5 9.5 8 
3569 1 2 9 8 
3570 2 2 9.5 8.5 
3571 1 2.5 9 8.5 
3572 1 2.5 9.5 8 
3573 1 3 9 8 
3574 1 3 9.5 8.5 
3575 1 3.5 9 8.5 
3576 1 3.5 9.5 8 
3577 2 4 9 8 
3578 1 4 9.5 8.5 
3579 2 4.5 9 8.5 
3580 1 4.5 9.5 8 
3581 2 5 9 8 
3582 1 5 9.5 8.5 
3583 1 5.5 9 8.5 
3584 2 5.5 9.5 8 
3585 1 6 9 8 
3586 2 6 9.5 8.5 
3587 1 6.5 9 8.5 
3588 1 6.5 9.5 8 
3589 2 7 9 8 
3590 1 7 9.5 8.5 
3591 1 7.5 9 8.5 
3592 2 7.5 9.5 8 
3593 2 8 9 8 
3594 1 8 9.5 8.5 
3595 1 8.5 9 8.5 
3596 1 8.5 9.5 8 
3597 1 9 9 8 
3598 2 9 9.5 8.5 
3599 1 9.5 9 8.5 
3600 1 9.5 9.5 8 
3601 1 0 0 9 
3602 1 0 0.5 9.5 
3603 2 0.5 0 9.5 
3604 1 0.5 0.5 9 
3605 1 1 0 9 
3606 1 1 0.5 9.5 
3607 1 1.5 0 9.5 
3608 2 1.5 0.5 9 
3609 1 2 0 9 
3610 2 2 0.5 9.5 
3611 1 2.5 0 9.5 
3612 1 2.5 0.5 9 
3613 1 3 0 9 
3614 2 3 0.5 9.5 
3615 2 3.5 0 9.5 
3616 2 3.5 0.5 9 
3617 2 4 0 9 
3618 2 4 0.5 9.5 
3619 2 4.5 0 9.5 
3620 1 4.5 0.5 9 
3621 2 5 0 9 
3622 1 5 0.5 9.5 
3623 1 5.5 0 9.5 
3624 1 5.5 0.5 9 
3625 2 6 0 9 
3626 1 6 0.5 9.5 
3627 1 6.5 0 9.5 
3628 1 6.5 0.5 9 
3629 1 7 0 9 
3630 2 7 0.5 9.5 
3631 1 7.5 0 9.5 
3632 1 7.5 0.5 9 
3633 2 8 0 9 
3634 1 8 0.5 9.5 
3635 2 8.5 0 9.5 
3636 1 8.5 0.5 9 
3637 1 9 0 9 
3638 1 9 0.5 9.5 
3639 1 9.5 0 9.5 
3640 1 9.5 0.5 9 
3641 2 0 1 9 
3642 1 0 1.5 9.5 
3643 2 0.5 1 9.5 
3644 1 0.5 1.5 9 
3645 1 1 1 9 
3646 2 1 1.5 9.5 
3647 2 1.5 1 9.5 
3648 1 1.5 1.5 9 
3649 2 2 1 9 
3650 1 2 1.5 9.5 
3651 2 2.5 1 9.5 
3652 2 2.5 1.5 9 
3653 1 3 1 9 
3654 2 3 1.5 9.5 
3655 1 3.5 1 9.5 
3656 1 3.5 1.5 9 
3657 2 4 1 9 
3658 2 4 1.5 9.5 
3659 1 4.5 1 9.5 
3660 2 4.5 1.5 9 
3661 1 5 1 9 
3662 1 5 1.5 9.5 
3663 1 5.5 1 9.5 
3664 2 5.5 1.5 9 
3665 2 6 1 9 
3666 2 6 1.5 9.5 
3667 1 6.5 1 9.5 
3668 1 6.5 1.5 9 
3669 1 7 1 9 
3670 2 7 1.5 9.5 
3671 2 7.5 1 9.5 
3672 2 7.5 1.5 9 
3673 2 8 1 9 
3674 1 8 1.5 9.5 
3675 1 8.5 1 9.5 
3676 1 8.5 1.5 9 
3677 2 9 1 9 
3678 2 9 1.5 9.5 
3679 1 9.5 1 9.5 
3680 2 9.5 1.5 9 
3681 1 0 2 9 
3682 1 0 2.5 9.5 
3683 1 0.5 2 9.5 
3684 1 0.5 2.5 9 
3685 2 1 2 9 
3686 1 1 2.5 9.5 
3687 1 1.5 2 9.5 
3688 2 1.5 2.5 9 
3689 1 2 2 9 
3690 1 2 2.5 9.5 
3691 2 2.5 2 9.5 
3692 2 2.5 2.5 9 
3693 1 3 2 9 
3694 1 3 2.5 9.5 
3695 2 3.5 2 9.5 
3696 2 3.5 2.5 9 
3697 1 4 2 9 
3698 2 4 2.5 9.5 
3699 2 4.5 2 9.5 
3700 1 4.5 2.5 9 
3701 1 5 2 9 
3702 1 5 2.5 9.5 
3703 2 5.5 2 9.5 
3704 2 5.5 2.5 9 
3705 2 6 2 9 
3706 2 6 2.5 9.5 
3707 1 6.5 2 9.5 
3708 1 6.5 2.5 9 
3709 1 7 2 9 
3710 1 7 2.5 9.5 
3711 2 7.5 2 9.5 
3712 1 7.5 2.5 9 
3713 2 8 2 9 
3714 1 8 2.5 9.5 
3715 1 8.5 2 9.5 
3716 1 8.5 2.5 9 
3717 2 9 2 9 
3718 1 9 2.5 9.5 
3719 1 9.5 2 9.5 
3720 1 9.5 2.5 9 
3721 2 0 3 9 
3722 2 0 3.5 9.5 
3723 1 0.5 3 9.5 
3724 1 0.5 3.5 9 
3725 2 1 3 9 
3726 1 1 3.5 9.5 
3727 1 1.5 3 9.5 
3728 1 1.5 3.5 9 
3729 1 2 3 9 
3730 1 2 3.5 9.5 
3731 2 2.5 3 9.5 
3732 2 2.5 3.5 9 
3733 2 3 3 9 
3734 1 3 3.5 9.5 
3735 2 3.5 3 9.5 
3736 2 3.5 3.5 9 
3737 1 4 3 9 
3738 2 4 3.5 9.5 
3739 1 4.5 3 9.5 
3740 1 4.5 3.5 9 
3741 1 5 3 9 
3742 2 5 3.5 9.5 
3743 1 5.5 3 9.5 
3744 1 5.5 3.5 9 
3745 2 6 3 9 
3746 1 6 3.5 9.5 
3747 1 6.5 3 9.5 
3748 2 6.5 3.5 9 
3749 2 7 3 9 
3750 2 7 3.5 9.5 
3751 2 7.5 3 9.5 
3752 1 7.5 3.5 9 
3753 2 8 3 9 
3754 1 8 3.5 9.5 
3755 2 8.5 3 9.5 
3756 1 8.5 3.5 9 
3757 1 9 3 9 
3758 2 9 3.5 9.5 
3759 1 9.5 3 9.5 
3760 1 9.5 3.5 9 
3761 1 0 4 9 
3762 2 0 4.5 9.5 
3763 2 0.5 4 9.5 
3764 1 0.5 4.5 9 
3765 1 1 4 9 
3766 1 1 4.5 9.5 
3767 1 1.5 4 9.5 
3768 2 1.5 4.5 9 
3769 2 2 4 9 
3770 1 2 4.5 9.5 
3771 2 2.5 4 9.5 
3772 1 2.5 4.5 9 
3773 1 3 4 9 
3774 2 3 4.5 9.5 
3775 2 3.5 4 9.5 
3776 2 3.5 4.5 9 
3777 2 4 4 9 
3778 2 4 4.5 9.5 
3779 2 4.5 4 9.5 
3780 1 4.5 4.5 9 
3781 2 5 4 9 
3782 1 5 4.5 9.5 
3783 1 5.5 4 9.5 
3784 1 5.5 4.5 9 
3785 1 6 4 9 
3786 1 6 4.5 9.5 
3787 1 6.5 4 9.5 
3788 2 6.5 4.5 9 
3789 1 7 4 9 
3790 2 7 4.5 9.5 
3791 2 7.5 4 9.5 
3792 1 7.5 4.5 9 
3793 1 8 4 9 
3794 1 8 4.5 9.5 
3795 2 8.5 4 9.5 
3796 1 8.5 4.5 9 
3797 2 9 4 9 
3798 2 9 4.5 9.5 
3799 1 9.5 4 9.5 
3800 1 9.5 4.5 9 
3801 1 0 5 9 
3802 1 0 5.5 9.5 
3803 2 0.5 5 9.5 
3804 2 0.5 5.5 9 
3805 1 1 5 9 
3806 2 1 5.5 9.5 
3807 1 1.5 5 9.5 
3808 2 1.5 5.5 9 
3809 1 2 5 9 
3810 1 2 5.5 9.5 
3811 1 2.5 5 9.5 
3812 1 2.5 5.5 9 
3813 1 3 5 9 
3814 1 3 5.5 9.5 
3815 2 3.5 5 9.5 
3816 2 3.5 5.5 9 
3817 2 4 5 9 
3818 1 4 5.5 9.5 
3819 2 4.5 5 9.5 
3820 1 4.5 5.5 9 
3821 2 5 5 9 
3822 2 5 5.5 9.5 
3823 1 5.5 5 9.5 
3824 2 5.5 5.5 9 
3825 2 6 5 9 
3826 2 6 5.5 9.5 
3827 1 6.5 5 9.5 
3828 2 6.5 5.5 9 
3829 1 7 5 9 
3830 2 7 5.5 9.5 
3831 1 7.5 5 9.5 
3832 2 7.5 5.5 9 
3833 2 8 5 9 
3834 1 8 5.5 9.5 
3835 1 8.5 5 9.5 
3836 1 8.5 5.5 9 
3837 1 9 5 9 
3838 2 9 5.5 9.5 
3839 1 9.5 5 9.5 
3840 2 9.5 5.5 9 
3841 2 0 6 9 
3842 2 0 6.5 9.5 
3843 1 0.5 6 9.5 
3844 1 0.5 6.5 9 
3845 2 1 6 9 
3846 2 1 6.5 9.5 
3847 1 1.5 6 9.5 
3848 2 1.5 6.5 9 
3849 1 2 6 9 
3850 1 2 6.5 9.5 
3851 2 2.5 6 9.5 
3852 1 2.5 6.5 9 
3853 1 3 6 9 
3854 1 3 6.5 9.5 
3855 1 3.5 6 9.5 
3856 1 3.5 6.5 9 
3857 1 4 6 9 
3858 1 4 6.5 9.5 
3859 2 4.5 6 9.5 
3860 2 4.5 6.5 9 
3861 2 5 6 9 
3862 2 5 6.5 9.5 
3863 2 5.5 6 9.5 
3864 1 5.5 6.5 9 
3865 2 6 6 9 
3866 1 6 6.5 9.5 
3867 2 6.5 6 9.5 
3868 1 6.5 6.5 9 
3869 2 7 6 9 
3870 2 7 6.5 9.5 
3871 1 7.5 6 9.5 
3872 1 7.5 6.5 9 
3873 1 8 6 9 
3874 1 8 6.5 9.5 
3875 2 8.5 6 9.5 
3876 1 8.5 6.5 9 
3877 2 9 6 9 
3878 2 9 6.5 9.5 
3879 1 9.5 6 9.5 
3880 2 9.5 6.5 9 
3881 1 0 7 9 
3882 1 0 7.5 9.5 
3883 1 0.5 7 9.5 
3884 2 0.5 7.5 9 
3885 1 1 7 9 
3886 1 1 7.5 9.5 
3887 1 1.5 7 9.5 
3888 1 1.5 7.5 9 
3889 1 2 7 9 
3890 1 2 7.5 9.5 
3891 2 2.5 7 9.5 
3892 1 2.5 7.5 9 
3893 1 3 7 9 
3894 2 3 7.5 9.5 
3895 1 3.5 7 9.5 
3896 1 3.5 7.5 9 
3897 2 4 7 9 
3898 1 4 7.5 9.5 
3899 2 4.5 7 9.5 
3900 2 4.5 7.5 9 
3901 1 5 7 9 
3902 1 5 7.5 9.5 
3903 1 5.5 7 9.5 
3904 1 5.5 7.5 9 
3905 2 6 7 9 
3906 2 6 7.5 9.5 
3907 2 6.5 7 9.5 
3908 2 6.5 7.5 9 
3909 1 7 7 9 
3910 1 7 7.5 9.5 
3911 1 7.5 7 9.5 
3912 1 7.5 7.5 9 
3913 1 8 7 9 
3914 1 8 7.5 9.5 
3915 1 8.5 7 9.5 
3916 2 8.5 7.5 9 
3917 2 9 7 9 
3918 1 9 7.5 9.5 
3919 1 9.5 7 9.5 
3920 1 9.5 7.5 9 
3921 1 0 8 9 
3922 1 0 8.5 9.5 
3923 2 0.5 8 9.5 
3924 2 0.5 8.5 9 
3925 2 1 8 9 
3926 1 1 8.5 9.5 
3927 1 1.5 8 9.5 
3928 2 1.5 8.5 9 
3929 1 2 8 9 
3930 1 2 8.5 9.5 
3931 2 2.5 8 9.5 
3932 1 2.5 8.5 9 
3933 2 3 8 9 
3934 1 3 8.5 9.5 
3935 1 3.5 8 9.5 
3936 2 3.5 8.5 9 
3937 2 4 8 9 
3938 1 4 8.5 9.5 
3939 1 4.5 8 9.5 
3940 1 4.5 8.5 9 
3941 1 5 8 9 
3942 2 5 8.5 9.5 
3943 1 5.5 8 9.5 
3944 1 5.5 8.5 9 
3945 1 6 8 9 
3946 2 6 8.5 9.5 
3947 2 6.5 8 9.5 
3948 1 6.5 8.5 9 
3949 1 7 8 9 
3950 1 7 8.5 9.5 
3951 1 7.5 8 9.5 
3952 1 7.5 8.5 9 
3953 2 8 8 9 
3954 1 8 8.5 9.5 
3955 2 8.5 8 9.5 
3956 2 8.5 8.5 9 
3957 1 9 8 9 
3958 2 9 8.5 9.5 
3959 2 9.5 8 9.5 
3960 2 9.5 8.5 9 
3961 1 0 9 9 
3962 1 0 9.5 9.5 
3963 1 0.5 9 9.5 
3964 2 0.5 9.5 9 
3965 1 1 9 9 
3966 1 1 9.5 9.5 
3967 1 1.5 9 9.5 
3968 2 1.5 9.5 9 
3969 2 2 9 9 
3970 2 2 9.5 9.5 
3971 1 2.5 9 9.5 
3972 2 2.5 9.5 9 
3973 2 3 9 9 
3974 2 3 9.5 9.5 
3975 2 3.5 9 9.5 
3976 2 3.5 9.5 9 
3977 2 4 9 9 
3978 1 4 9.5 9.5 
3979 1 4.5 9 9.5 
3980 2 4.5 9.5 9 
3981 2 5 9 9 
3982 2 5 9.5 9.5 
3983 2 5.5 9 9.5 
3984 1 5.5 9.5 9 
3985 2 6 9 9 
3986 1 6 9.5 9.5 
3987 2 6.5 9 9.5 
3988 1 6.5 9.5 9 
3989 1 7 9 9 
3990 2 7 9.5 9.5 
3991 1 7.5 9 9.5 
3992 1 7.5 9.5 9 
3993 1 8 9 9 
3994 2 8 9.5 9.5 
3995 1 8.5 9 9.5 
3996 1 8.5 9.5 9 
3997 1 9 9 9 
3998 2 9 9.5 9.5 
3999 1 9.5 9 9.5 
4000 1 9.5 9.5 9 
4001 2 0 0 10 
4002 2 0 0.5 10.5 
4003 2 0.5 0 10.5 
4004 1 0.5 0.5 10 
4005 1 1 0 10 
4006 2 1 0.5 10.5 
4007 2 1.5 0 10.5 
4008 1 1.5 0.5 10 
4009 2 2 0 10 
4010 2 2 0.5 10.5 
4011 2 2.5 0 10.5 
4012 2 2.5 0.5 10 
4013 1 3 0 10 
4014 2 3 0.5 10.5 
4015 1 3.5 0 10.5 
4016 2 3.5 0.5 10 
4017 1 4 0 10 
4018 2 4 0.5 10.5 
4019 1 4.5 0 10.5 
4020 1 4.5 0.5 10 
4021 1 5 0 10 
4022 2 5 0.5 10.5 
4023 2 5.5 0 10.5 
4024 2 5.5 0.5 10 
4025 1 6 0 10 
4026 1 6 0.5 10.5 
4027 2 6.5 0 10.5 
4028 2 6.5 0.5 10 
4029 1 7 0 10 
4030 2 7 0.5 10.5 
4031 1 7.5 0 10.5 
4032 2 7.5 0.5 10 
4033 2 8 0 10 
4034 1 8 0.5 10.5 
4035 1 8.5 0 10.5 
4036 2 8.5 0.5 10 
4037 2 9 0 10 
4038 2 9 0.5 10.5 
4039 2 9.5 0 10.5 
4040 2 9.5 0.5 10 
4041 1 0 1 10 
4042 2 0 1.5 10.5 
4043 1 0.5 1 10.5 
4044 1 0.5 1.5 10 
4045 1 1 1 10 
4046 2 1 1.5 10.5 
4047 2 1.5 1 10.5 
4048 2 1.5 1.5 10 
4049 1 2 1 10 
4050 1 2 1.5 10.5 
4051 1 2.5 1 10.5 
4052 2 2.5 1.5 10 
4053 1 3 1 10 
4054 1 3 1.5 10.5 
4055 1 3.5 1 10.5 
4056 1 3.5 1.5 10 
4057 2 4 1 10 
4058 2 4 1.5 10.5 
4059 1 4.5 1 10.5 
4060 2 4.5 1.5 10 
4061 1 5 1 10 
4062 1 5 1.5 10.5 
4063 2 5.5 1 10.5 
4064 1 5.5 1.5 10 
4065 1 6 1 10 
4066 2 6 1.5 10.5 
4067 1 6.5 1 10.5 
4068 1 6.5 1.5 10 
4069 1 7 1 10 
4070 1 7 1.5 10.5 
4071 1 7.5 1 10.5 
4072 2 7.5 1.5 10 
4073 1 8 1 10 
4074 2 8 1.5 10.5 
4075 2 8.5 1 10.5 
4076 1 8.5 1.5 10 
4077 2 9 1 10 
4078 2 9 1.5 10.5 
4079 2 9.5 1 10.5 
4080 1 9.5 1.5 10 
4081 1 0 2 10 
4082 2 0 2.5 10.5 
4083 1 0.5 2 10.5 
4084 2 0.5 2.5 10 
4085 1 1 2 10 
4086 1 1 2.5 10.5 
4087 2 1.5 2 10.5 
4088 2 1.5 2.5 10 
4089 1 2 2 10 
4090 1 2 2.5 10.5 
4091 1 2.5 2 10.5 
4092 2 2.5 2.5 10 
4093 2 3 2 10 
4094 1 3 2.5 10.5 
4095 1 3.5 2 10.5 
4096 1 3.5 2.5 10 
4097 1 4 2 10 
4098 1 4 2.5 10.5 
4099 1 4.5 2 10.5 
4100 2 4.5 2.5 10 
4101 1 5 2 10 
4102 1 5 2.5 10.5 
4103 2 5.5 2 10.5 
4104 2 5.5 2.5 10 
4105 2 6 2 10 
4106 1 6 2.5 10.5 
4107 2 6.5 2 10.5 
4108 2 6.5 2.5 10 
4109 2 7 2 10 
4110 1 7 2.5 10.5 
4111 1 7.5 2 10.5 
4112 2 7.5 2.5 10 
4113 2 8 2 10 
4114 1 8 2.5 10.5 
4115 2 8.5 2 10.5 
4116 2 8.5 2.5 10 
4117 1 9 2 10 
4118 2 9 2.5 10.5 
4119 1 9.5 2 10.5 
4120 2 9.5 2.5 10 
4121 1 0 3 10 
4122 2 0 3.5 10.5 
4123 2 0.5 3 10.5 
4124 2 0.5 3.5 10 
4125 1 1 3 10 
4126 1 1 3.5 10.5 
4127 1 1.5 3 10.5 
4128 2 1.5 3.5 10 
4129 1 2 3 10 
4130 1 2 3.5 10.5 
4131 1 2.5 3 10.5 
4132 2 2.5 3.5 10 
4133 2 3 3 10 
4134 2 3 3.5 10.5 
4135 2 3.5 3 10.5 
4136 1 3.5 3.5 10 
4137 2 4 3 10 
4138 2 4 3.5 10.5 
4139 2 4.5 3 10.5 
4140 2 4.5 3.5 10 
4141 1 5 3 10 
4142 1 5 3.5 10.5 
4143 2 5.5 3 10.5 
4144 2 5.5 3.5 10 
4145 2 6 3 10 
4146 1 6 3.5 10.5 
4147 1 6.5 3 10.5 
4148 2 6.5 3.5 10 
4149 2 7 3 10 
4150 2 7 3.5 10.5 
4151 2 7.5 3 10.5 
4152 1 7.5 3.5 10 
4153 2 8 3 10 
4154 1 8 3.5 10.5 
4155 2 8.5 3 10.5 
4156 1 8.5 3.5 10 
4157 1 9 3 10 
4158 1 9 3.5 10.5 
4159 2 9.5 3 10.5 
4160 2 9.5 3.5 10 
4161 2 0 4 10 
4162 2 0 4.5 10.5 
4163 1 0.5 4 10.5 
4164 1 0.5 4.5 10 
4165 2 1 4 10 
4166 1 1 4.5 10.5 
4167 2 1.5 4 10.5 
4168 2 1.5 4.5 10 
4169 2 2 4 10 
4170 1 2 4.5 10.5 
4171 1 2.5 4 10.5 
4172 1 2.5 4.5 10 
4173 1 3 4 10 
4174 1 3 4.5 10.5 
4175 2 3.5 4 10.5 
4176 1 3.5 4.5 10 
4177 1 4 4 10 
4178 1 4 4.5 10.5 
4179 1 4.5 4 10.5 
4180 2 4.5 4.5 10 
4181 1 5 4 10 
4182 1 5 4.5 10.5 
4183 1 5.5 4 10.5 
4184 2 5.5 4.5 10 
4185 2 6 4 10 
4186 1 6 4.5 10.5 
4187 1 6.5 4 10.5 
4188 1 6.5 4.5 10 
4189 1 7 4 10 
4190 1 7 4.5 10.5 
4191 2 7.5 4 10.5 
4192 1 7.5 4.5 10 
4193 2 8 4 10 
4194 1 8 4.5 10.5 
4195 1 8.5 4 10.5 
4196 2 8.5 4.5 10 
4197 1 9 4 10 
4198 1 9 4.5 10.5 
4199 2 9.5 4 10.5 
4200 1 9.5 4.5 10 
4201 2 0 5 10 
4202 1 0 5.5 10.5 
4203 2 0.5 5 10.5 
4204 1 0.5 5.5 10 
4205 2 1 5 10 
4206 1 1 5.5 10.5 
4207 1 1.5 5 10.5 
4208 1 1.5 5.5 10 
4209 1 2 5 10 
4210 2 2 5.5 10.5 
4211 2 2.5 5 10.5 
4212 2 2.5 5.5 10 
4213 1 3 5 10 
4214 2 3 5.5 10.5 
4215 2 3.5 5 10.5 
4216 1 3.5 5.5 10 
4217 1 4 5 10 
4218 2 4 5.5 10.5 
4219 1 4.5 5 10.5 
4220 1 4.5 5.5 10 
4221 2 5 5 10 
4222 1 5 5.5 10.5 
4223 1 5.5 5 10.5 
4224 1 5.5 5.5 10 
4225 1 6 5 10 
4226 2 6 5.5 10.5 
4227 1 6.5 5 10.5 
4228 1 6.5 5.5 10 
4229 2 7 5 10 
4230 2 7 5.5 10.5 
4231 1 7.5 5 10.5 
4232 2 7.5 5.5 10 
4233 1 8 5 10 
4234 2 8 5.5 10.5 
4235 2 8.5 5 10.5 
4236 2 8.5 5.5 10 
4237 2 9 5 10 
4238 1 9 5.5 10.5 
4239 2 9.5 5 10.5 
4240 1 9.5 5.5 10 
4241 2 0 6 10 
4242 2 0 6.5 10.5 
4243 1 0.5 6 10.5 
4244 1 0.5 6.5 10 
4245 1 1 6 10 
4246 1 1 6.5 10.5 
4247 1 1.5 6 10.5 
4248 2 1.5 6.5 10 
4249 2 2 6 10 
4250 2 2 6.5 10.5 
4251 1 2.5 6 10.5 
4252 2 2.5 6.5 10 
4253 1 3 6 10 
4254 2 3 6.5 10.5 
4255 1 3.5 6 10.5 
4256 1 3.5 6.5 10 
4257 1 4 6 10 
4258 1 4 6.5 10.5 
4259 2 4.5 6 10.5 
4260 2 4.5 6.5 10 
4261 1 5 6 10 
4262 2 5 6.5 10.5 
4263 2 5.5 6 10.5 
4264 2 5.5 6.5 10 
4265 1 6 6 10 
4266 1 6 6.5 10.5 
4267 2 6.5 6 10.5 
4268 1 6.5 6.5 10 
4269 2 7 6 10 
4270 1 7 6.5 10.5 
4271 2 7.5 6 10.5 
4272 1 7.5 6.5 10 
4273 2 8 6 10 
4274 2 8 6.5 10.5 
4275 1 8.5 6 10.5 
4276 1 8.5 6.5 10 
4277 1 9 6 10 
4278 1 9 6.5 10.5 
4279 1 9.5 6 10.5 
4280 2 9.5 6.5 10 
4281 2 0 7 10 
4282 1 0 7.5 10.5 
4283 1 0.5 7 10.5 
4284 1 0.5 7.5 10 
4285 2 1 7 10 
4286 2 1 7.5 10.5 
4287 1 1.5 7 10.5 
4288 2 1.5 7.5 10 
4289 2 2 7 10 
4290 2 2 7.5 10.5 
4291 2 2.5 7 10.5 
4292 2 2.5 7.5 10 
4293 1 3 7 10 
4294 1 3 7.5 10.5 
4295 2 3.5 7 10.5 
4296 1 3.5 7.5 10 
4297 2 4 7 10 
4298 1 4 7.5 10.5 
4299 1 4.5 7 10.5 
4300 2 4.5 7.5 10 
4301 2 5 7 10 
4302 1 5 7.5 10.5 
4303 1 5.5 7 10.5 
4304 2 5.5 7.5 10 
4305 2 6 7 10 
4306 2 6 7.5 10.5 
4307 1 6.5 7 10.5 
4308 1 6.5 7.5 10 
4309 2 7 7 10 
4310 1 7 7.5 10.5 
4311 1 7.5 7 10.5 
4312 1 7.5 7.5 10 
4313 2 8 7 10 
4314 1 8 7.5 10.5 
4315 1 8.5 7 10.5 
4316 1 8.5 7.5 10 
4317 2 9 7 10 
4318 2 9 7.5 10.5 
4319 2 9.5 7 10.5 
4320 1 9.5 7.5 10 
4321 1 0 8 10 
4322 1 0 8.5 10.5 
4323 2 0.5 8 10.5 
4324 2 0.5 8.5 10 
4325 1 1 8 10 
4326 2 1 8.5 10.5 
4327 2 1.5 8 10.5 
4328 2 1.5 8.5 10 
4329 1 2 8 10 
4330 1 2 8.5 10.5 
4331 1 2.5 8 10.5 
4332 1 2.5 8.5 10 
4333 2 3 8 10 
4334 1 3 8.5 10.5 
4335 1 3.5 8 10.5 
4336 2 3.5 8.5 10 
4337 2 4 8 10 
4338 1 4 8.5 10.5 
4339 2 4.5 8 10.5 
4340 2 4.5 8.5 10 
4341 2 5 8 10 
4342 2 5 8.5 10.5 
4343 2 5.5 8 10.5 
4344 2 5.5 8.5 10 
4345 2 6 8 10 
4346 2 6 8.5 10.5 
4347 1 6.5 8 10.5 
4348 2 6.5 8.5 10 
4349 1 7 8 10 
4350 2 7 8.5 10.5 
4351 1 7.5 8 10.5 
4352 2 7.5 8.5 10 
4353 1 8 8 10 
4354 2 8 8.5 10.5 
4355 2 8.5 8 10.5 
4356 1 8.5 8.5 10 
4357 2 9 8 10 
4358 2 9 8.5 10.5 
4359 2 9.5 8 10.5 
4360 1 9.5 8.5 10 
4361 1 0 9 10 
4362 2 0 9.5 10.5 
4363 2 0.5 9 10.5 
4364 1 0.5 9.5 10 
4365 2 1 9 10 
4366 1 1 9.5 10.5 
4367 1 1.5 9 10.5 
4368 2 1.5 9.5 10 
4369 1 2 9 10 
4370 2 2 9.5 10.5 
4371 1 2.5 9 10.5 
4372 1 2.5 9.5 10 
4373 1 3 9 10 
4374 1 3 9.5 10.5 
4375 2 3.5 9 10.5 
4376 1 3.5 9.5 10 
4377 2 4 9 10 
4378 1 4 9.5 10.5 
4379 1 4.5 9 10.5 
4380 1 4.5 9.5 10 
4381 1 5 9 10 
4382 1 5 9.5 10.5 
4383 1 5.5 9 10.5 
4384 1 5.5 9.5 10 
4385 2 6 9 10 
4386 1 6 9.5 10.5 
4387 1 6.5 9 10.5 
4388 2 6.5 9.5 10 
4389 2 7 9 10 
4390 2 7 9.5 10.5 
4391 1 7.5 9 10.5 
4392 2 7.5 9.5 10 
4393 2 8 9 10 
4394 2 8 9.5 10.5 
4395 2 8.5 9 10.5 
4396 2 8.5 9.5 10 
4397 2 9 9 10 
4398 2 9 9.5 10.5 
4399 2 9.5 9 10.5 
4400 1 9.5 9.5 10 
4401 1 0 0 11 
4402 2 0 0.5 11.5 
4403 2 0.5 0 11.5 
4404 2 0.5 0.5 11 
4405 2 1 0 11 
4406 1 1 0.5 11.5 
4407 1 1.5 0 11.5 
4408 1 1.5 0.5 11 
4409 1 2 0 11 
4410 1 2 0.5 11.5 
4411 2 2.5 0 11.5 
4412 2 2.5 0.5 11 
4413 2 3 0 11 
4414 2 3 0.5 11.5 
4415 1 3.5 0 11.5 
4416 2 3.5 0.5 11 
4417 1 4 0 11 
4418 2 4 0.5 11.5 
4419 1 4.5 0 11.5 
4420 2 4.5 0.5 11 
4421 1 5 0 11 
4422 1 5 0.5 11.5 
4423 1 5.5 0 11.5 
4424 1 5.5 0.5 11 
4425 2 6 0 11 
4426 1 6 0.5 11.5 
4427 2 6.5 0 11.5 
4428 1 6.5 0.5 11 
4429 1 7 0 11 
4430 2 7 0.5 11.5 
4431 1 7.5 0 11.5 
4432 2 7.5 0.5 11 
4433 2 8 0 11 
4434 2 8 0.5 11.5 
4435 1 8.5 0 11.5 
4436 1 8.5 0.5 11 
4437 1 9 0 11 
4438 2 9 0.5 11.5 
4439 2 9.5 0 11.5 
4440 2 9.5 0.5 11 
4441 2 0 1 11 
4442 1 0 1.5 11.5 
4443 1 0.5 1 11.5 
4444 1 0.5 1.5 11 
4445 2 1 1 11 
4446 1 1 1.5 11.5 
4447 1 1.5 1 11.5 
4448 2 1.5 1.5 11 
4449 1 2 1 11 
4450 2 2 1.5 11.5 
4451 2 2.5 1 11.5 
4452 1 2.5 1.5 11 
4453 2 3 1 11 
4454 1 3 1.5 11.5 
4455 2 3.5 1 11.5 
4456 1 3.5 1.5 11 
4457 2 4 1 11 
4458 1 4 1.5 11.5 
4459 1 4.5 1 11.5 
4460 1 4.5 1.5 11 
4461 2 5 1 11 
4462 2 5 1.5 11.5 
4463 2 5.5 1 11.5 
4464 2 5.5 1.5 11 
4465 1 6 1 11 
4466 1 6 1.5 11.5 
4467 1 6.5 1 11.5 
4468 2 6.5 1.5 11 
4469 2 7 1 11 
4470 1 7 1.5 11.5 
4471 1 7.5 1 11.5 
4472 2 7.5 1.5 11 
4473 2 8 1 11 
4474 1 8 1.5 11.5 
4475 2 8.5 1 11.5 
4476 2 8.5 1.5 11 
4477 2 9 1 11 
4478 1 9 1.5 11.5 
4479 1 9.5 1 11.5 
4480 1 9.5 1.5 11 
4481 1 0 2 11 
4482 1 0 2.5 11.5 
4483 1 0.5 2 11.5 
4484 1 0.5 2.5 11 
4485 1 1 2 11 
4486 2 1 2.5 11.5 
4487 1 1.5 2 11.5 
4488 1 1.5 2.5 11 
4489 2 2 2 11 
4490 1 2 2.5 11.5 
4491 2 2.5 2 11.5 
4492 1 2.5 2.5 11 
4493 1 3 2 11 
4494 2 3 2.5 11.5 
4495 1 3.5 2 11.5 
4496 1 3.5 2.5 11 
4497 1 4 2 11 
4498 1 4 2.5 11.5 
4499 2 4.5 2 11.5 
4500 2 4.5 2.5 11 
4501 2 5 2 11 
4502 2 5 2.5 11.5 
4503 1 5.5 2 11.5 
4504 1 5.5 2.5 11 
4505 1 6 2 11 
4506 1 6 2.5 11.5 
4507 1 6.5 2 11.5 
4508 1 6.5 2.5 11 
4509 2 7 2 11 
4510 1 7 2.5 11.5 
4511 1 7.5 2 11.5 
4512 2 7.5 2.5 11 
4513 1 8 2 11 
4514 2 8 2.5 11.5 
4515 1 8.5 2 11.5 
4516 2 8.5 2.5 11 
4517 1 9 2 11 
4518 2 9 2.5 11.5 
4519 2 9.5 2 11.5 
4520 2 9.5 2.5 11 
4521 1 0 3 11 
4522 1 0 3.5 11.5 
4523 1 0.5 3 11.5 
4524 1 0.5 3.5 11 
4525 2 1 3 11 
4526 1 1 3.5 11.5 
4527 2 1.5 3 11.5 
4528 2 1.5 3.5 11 
4529 2 2 3 11 
4530 1 2 3.5 11.5 
4531 2 2.5 3 11.5 
4532 2 2.5 3.5 11 
4533 1 3 3 11 
4534 2 3 3.5 11.5 
4535 2 3.5 3 11.5 
4536 2 3.5 3.5 11 
4537 1 4 3 11 
4538 2 4 3.5 11.5 
4539 2 4.5 3 11.5 
4540 2 4.5 3.5 11 
4541 2 5 3 11 
4542 1 5 3.5 11.5 
4543 1 5.5 3 11.5 
4544 2 5.5 3.5 11 
4545 1 6 3 11 
4546 1 6 3.5 11.5 
4547 1 6.5 3 11.5 
4548 1 6.5 3.5 11 
4549 2 7 3 11 
4550 2 7 3.5 11.5 
4551 1 7.5 3 11.5 
4552 1 7.5 3.5 11 
4553 1 8 3 11 
4554 1 8 3.5 11.5 
4555 1 8.5 3 11.5 
4556 2 8.5 3.5 11 
4557 1 9 3 11 
4558 2 9 3.5 11.5 
4559 2 9.5 3 11.5 
4560 1 9.5 3.5 11 
4561 1 0 4 11 
4562 2 0 4.5 11.5 
4563 1 0.5 4 11.5 
4564 1 0.5 4.5 11 
4565 1 1 4 11 
4566 1 1 4.5 11.5 
4567 1 1.5 4 11.5 
4568 2 1.5 4.5 11 
4569 2 2 4 11 
4570 2 2 4.5 11.5 
4571 2 2.5 4 11.5 
4572 2 2.5 4.5 11 
4573 1 3 4 11 
4574 1 3 4.5 11.5 
4575 1 3.5 4 11.5 
4576 1 3.5 4.5 11 
4577 1 4 4 11 
4578 1 4 4.5 11.5 
4579 2 4.5 4 11.5 
4580 1 4.5 4.5 11 
4581 2 5 4 11 
4582 1 5 4.5 11.5 
4583 1 5.5 4 11.5 
4584 2 5.5 4.5 11 
4585 2 6 4 11 
4586 2 6 4.5 11.5 
4587 1 6.5 4 11.5 
4588 1 6.5 4.5 11 
4589 1 7 4 11 
4590 1 7 4.5 11.5 
4591 1 7.5 4 11.5 
4592 2 7.5 4.5 11 
4593 2 8 4 11 
4594 1 8 4.5 11.5 
4595 2 8.5 4 11.5 
4596 1 8.5 4.5 11 
4597 1 9 4 11 
4598 1 9 4.5 11.5 
4599 2 9.5 4 11.5 
4600 2 9.5 4.5 11 
4601 1 0 5 11 
4602 1 0 5.5 11.5 
4603 1 0.5 5 11.5 
4604 1 0.5 5.5 11 
4605 1 1 5 11 
4606 1 1 5.5 11.5 
4607 2 1.5 5 11.5 
4608 1 1.5 5.5 11 
4609 1 2 5 11 
4610 1 2 5.5 11.5 
4611 1 2.5 5 11.5 
4612 1 2.5 5.5 11 
4613 2 3 5 11 
4614 1 3 5.5 11.5 
4615 1 3.5 5 11.5 
4616 1 3.5 5.5 11 
4617 1 4 5 11 
4618 2 4 5.5 11.5 
4619 1 4.5 5 11.5 
4620 1 4.5 5.5 11 
4621 2 5 5 11 
4622 2 5 5.5 11.5 
4623 2 5.5 5 11.5 
4624 1 5.5 5.5 11 
4625 1 6 5 11 
4626 1 6 5.5 11.5 
4627 1 6.5 5 11.5 
4628 1 6.5 5.5 11 
4629 1 7 5 11 
4630 2 7 5.5 11.5 
4631 1 7.5 5 11.5 
4632 2 7.5 5.5 11 
4633 2 8 5 11 
4634 1 8 5.5 11.5 
4635 2 8.5 5 11.5 
4636 1 8.5 5.5 11 
4637 2 9 5 11 
4638 1 9 5.5 11.5 
4639 2 9.5 5 11.5 
4640 2 9.5 5.5 11 
4641 1 0 6 11 
4642 1 0 6.5 11.5 
4643 2 0.5 6 11.5 
4644 1 0.5 6.5 11 
4645 1 1 6 11 
4646 1 1 6.5 11.5 
4647 1 1.5 6 11.5 
4648 1 1.5 6.5 11 
4649 1 2 6 11 
4650 1 2 6.5 11.5 
4651 1 2.5 6 11.5 
4652 2 2.5 6.5 11 
4653 1 3 6 11 
4654 2 3 6.5 11.5 
4655 2 3.5 6 11.5 
4656 1 3.5 6.5 11 
4657 1 4 6 11 
4658 1 4 6.5 11.5 
4659 1 4.5 6 11.5 
4660 1 4.5 6.5 11 
4661 2 5 6 11 
4662 2 5 6.5 11.5 
4663 2 5.5 6 11.5 
4664 2 5.5 6.5 11 
4665 1 6 6 11 
4666 1 6 6.5 11.5 
4667 2 6.5 6 11.5 
4668 2 6.5 6.5 11 
4669 1 7 6 11 
4670 1 7 6.5 11.5 
4671 1 7.5 6 11.5 
4672 1 7.5 6.5 11 
4673 1 8 6 11 
4674 2 8 6.5 11.5 
4675 2 8.5 6 11.5 
4676 2 8.5 6.5 11 
4677 1 9 6 11 
4678 1 9 6.5 11.5 
4679 1 9.5 6 11.5 
4680 1 9.5 6.5 11 
4681 1 0 7 11 
4682 1 0 7.5 11.5 
4683 1 0.5 7 11.5 
4684 1 0.5 7.5 11 
4685 2 1 7 11 
4686 2 1 7.5 11.5 
4687 2 1.5 7 11.5 
4688 1 1.5 7.5 11 
4689 1 2 7 11 
4690 1 2 7.5 11.5 
4691 2 2.5 7 11.5 
4692 2 2.5 7.5 11 
4693 2 3 7 11 
4694 1 3 7.5 11.5 
4695 1 3.5 7 11.5 
4696 2 3.5 7.5 11 
4697 1 4 7 11 
4698 2 4 7.5 11.5 
4699 2 4.5 7 11.5 
4700 1 4.5 7.5 11 
4701 1 5 7 11 
4702 2 5 7.5 11.5 
4703 2 5.5 7 11.5 
4704 1 5.5 7.5 11 
4705 1 6 7 11 
4706 1 6 7.5 11.5 
4707 1 6.5 7 11.5 
4708 1 6.5 7.5 11 
4709 2 7 7 11 
4710 1 7 7.5 11.5 
4711 1 7.5 7 11.5 
4712 2 7.5 7.5 11 
4713 1 8 7 11 
4714 2 8 7.5 11.5 
4715 1 8.5 7 11.5 
4716 2 8.5 7.5 11 
4717 1 9 7 11 
4718 1 9 7.5 11.5 
4719 1 9.5 7 11.5 
4720 2 9.5 7.5 11 
4721 1 0 8 11 
4722 2 0 8.5 11.5 
4723 2 0.5 8 11.5 
4724 2 0.5 8.5 11 
4725 2 1 8 11 
4726 1 1 8.5 11.5 
4727 1 1.5 8 11.5 
4728 1 1.5 8.5 11 
4729 1 2 8 11 
4730 2 2 8.5 11.5 
4731 2 2.5 8 11.5 
4732 1 2.5 8.5 11 
4733 1 3 8 11 
4734 2 3 8.5 11.5 
4735 1 3.5 8 11.5 
4736 1 3.5 8.5 11 
4737 2 4 8 11 
4738 1 4 8.5 11.5 
4739 1 4.5 8 11.5 
4740 1 4.5 8.5 11 
4741 2 5 8 11 
4742 1 5 8.5 11.5 
4743 1 5.5 8 11.5 
4744 2 5.5 8.5 11 
4745 1 6 8 11 
4746 1 6 8.5 11.5 
4747 2 6.5 8 11.5 
4748 2 6.5 8.5 11 
4749 2 7 8 11 
4750 1 7 8.5 11.5 
4751 2 7.5 8 11.5 
4752 1 7.5 8.5 11 
4753 2 8 8 11 
4754 1 8 8.5 11.5 
4755 1 8.5 8 11.5 
4756 2 8.5 8.5 11 
4757 1 9 8 11 
4758 1 9 8.5 11.5 
4759 1 9.5 8 11.5 
4760 1 9.5 8.5 11 
4761 2 0 9 11 
4762 1 0 9.5 11.5 
4763 1 0.5 9 11.5 
4764 1 0.5 9.5 11 
4765 1 1 9 11 
4766 1 1 9.5 11.5 
4767 1 1.5 9 11.5 
4768 1 1.5 9.5 11 
4769 2 2 9 11 
4770 2 2 9.5 11.5 
4771 2 2.5 9 11.5 
4772 2 2.5 9.5 11 
4773 1 3 9 11 
4774 1 3 9.5 11.5 
4775 1 3.5 9 11.5 
4776 2 3.5 9.5 11 
4777 1 4 9 11 
4778 1 4 9.5 11.5 
4779 2 4.5 9 11.5 
4780 2 4.5 9.5 11 
4781 1 5 9 11 
4782 2 5 9.5 11.5 
4783 1 5.5 9 11.5 
4784 1 5.5 9.5 11 
4785 1 6 9 11 
4786 1 6 9.5 11.5 
4787 2 6.5 9 11.5 
4788 1 6.5 9.5 11 
4789 1 7 9 11 
4790 2 7 9.5 11.5 
4791 1 7.5 9 11.5 
4792 1 7.5 9.5 11 
4793 2 8 9 11 
4794 1 8 9.5 11.5 
4795 1 8.5 9 11.5 
4796 1 8.5 9.5 11 
4797 1 9 9 11 
4798 2 9 9.5 11.5 
4799 1 9.5 9 11.5 
4800 2 9.5 9.5 11 
4801 1 0 0 12 
4802 2 0 0.5 12.5 
4803 1 0.5 0 12.5 
4804 1 0.5 0.5 12 
4805 2 1 0 12 
4806 2 1 0.5 12.5 
4807 1 1.5 0 12.5 
4808 1 1.5 0.5 12 
4809 1 2 0 12 
4810 1 2 0.5 12.5 
4811 1 2.5 0 12.5 
4812 1 2.5 0.5 12 
4813 1 3 0 12 
4814 1 3 0.5 12.5 
4815 2 3.5 0 12.5 
4816 2 3.5 0.5 12 
4817 1 4 0 12 
4818 1 4 0.5 12.5 
4819 2 4.5 0 12.5 
4820 2 4.5 0.5 12 
4821 2 5 0 12 
4822 2 5 0.5 12.5 
4823 1 5.5 0 12.5 
4824 2 5.5 0.5 12 
4825 1 6 0 12 
4826 1 6 0.5 12.5 
4827 1 6.5 0 12.5 
4828 1 6.5 0.5 12 
4829 1 7 0 12 
4830 1 7 0.5 12.5 
4831 1 7.5 0 12.5 
4832 2 7.5 0.5 12 
4833 1 8 0 12 
4834 2 8 0.5 12.5 
4835 1 8.5 0 12.5 
4836 1 8.5 0.5 12 
4837 1 9 0 12 
4838 1 9 0.5 12.5 
4839 2 9.5 0 12.5 
4840 2 9.5 0.5 12 
4841 2 0 1 12 
4842 2 0 1.5 12.5 
4843 1 0.5 1 12.5 
4844 1 0.5 1.5 12 
4845 1 1 1 12 
4846 1 1 1.5 12.5 
4847 1 1.5 1 12.5 
4848 1 1.5 1.5 12 
4849 2 2 1 12 
4850 1 2 1.5 12.5 
4851 1 2.5 1 12.5 
4852 1 2.5 1.5 12 
4853 2 3 1 12 
4854 2 3 1.5 12.5 
4855 1 3.5 1 12.5 
4856 1 3.5 1.5 12 
4857 2 4 1 12 
4858 1 4 1.5 12.5 
4859 1 4.5 1 12.5 
4860 1 4.5 1.5 12 
4861 2 5 1 12 
4862 1 5 1.5 12.5 
4863 2 5.5 1 12.5 
4864 1 5.5 1.5 12 
4865 2 6 1 12 
4866 1 6 1.5 12.5 
4867 1 6.5 1 12.5 
4868 1 6.5 1.5 12 
4869 1 7 1 12 
4870 2 7 1.5 12.5 
4871 1 7.5 1 12.5 
4872 2 7.5 1.5 12 
4873 1 8 1 12 
4874 1 8 1.5 12.5 
4875 2 8.5 1 12.5 
4876 1 8.5 1.5 12 
4877 1 9 1 12 
4878 1 9 1.5 12.5 
4879 1 9.5 1 12.5 
4880 2 9.5 1.5 12 
4881 1 0 2 12 
4882 1 0 2.5 12.5 
4883 1 0.5 2 12.5 
4884 2 0.5 2.5 12 
4885 1 1 2 12 
4886 1 1 2.5 12.5 
4887 2 1.5 2 12.5 
4888 1 1.5 2.5 12 
4889 2 2 2 12 
4890 1 2 2.5 12.5 
4891 1 2.5 2 12.5 
4892 1 2.5 2.5 12 
4893 2 3 2 12 
4894 2 3 2.5 12.5 
4895 2 3.5 2 12.5 
4896 2 3.5 2.5 12 
4897 1 4 2 12 
4898 2 4 2.5 12.5 
4899 1 4.5 2 12.5 
4900 1 4.5 2.5 12 
4901 1 5 2 12 
4902 1 5 2.5 12.5 
4903 1 5.5 2 12.5 
4904 1 5.5 2.5 12 
4905 2 6 2 12 
4906 1 6 2.5 12.5 
4907 1 6.5 2 12.5 
4908 2 6.5 2.5 12 
4909 1 7 2 12 
4910 2 7 2.5 12.5 
4911 2 7.5 2 12.5 
4912 2 7.5 2.5 12 
4913 1 8 2 12 
4914 1 8 2.5 12.5 
4915 2 8.5 2 12.5 
4916 2 8.5 2.5 12 
4917 1 9 2 12 
4918 2 9 2.5 12.5 
4919 1 9.5 2 12.5 
4920 1 9.5 2.5 12 
4921 1 0 3 12 
4922 1 0 3.5 12.5 
4923 1 0.5 3 12.5 
4924 1 0.5 3.5 12 
4925 1 1 3 12 
4926 1 1 3.5 12.5 
4927 2 1.5 3 12.5 
4928 1 1.5 3.5 12 
4929 1 2 3 12 
4930 2 2 3.5 12.5 
4931 1 2.5 3 12.5 
4932 2 2.5 3.5 12 
4933 1 3 3 12 
4934 2 3 3.5 12.5 
4935 2 3.5 3 12.5 
4936 1 3.5 3.5 12 
4937 1 4 3 12 
4938 1 4 3.5 12.5 
4939 1 4.5 3 12.5 
4940 1 4.5 3.5 12 
4941 1 5 3 12 
4942 2 5 3.5 12.5 
4943 1 5.5 3 12.5 
4944 1 5.5 3.5 12 
4945 2 6 3 12 
4946 2 6 3.5 12.5 
4947 2 6.5 3 12.5 
4948 1 6.5 3.5 12 
4949 2 7 3 12 
4950 2 7 3.5 12.5 
4951 2 7.5 3 12.5 
4952 1 7.5 3.5 12 
4953 1 8 3 12 
4954 1 8 3.5 12.5 
4955 2 8.5 3 12.5 
4956 1 8.5 3.5 12 
4957 2 9 3 12 
4958 1 9 3.5 12.5 
4959 2 9.5 3 12.5 
4960 2 9.5 3.5 12 
4961 1 0 4 12 
4962 1 0 4.5 12.5 
4963 2 0.5 4 12.5 
4964 2 0.5 4.5 12 
4965 1 1 4 12 
4966 2 1 4.5 12.5 
4967 1 1.5 4 12.5 
4968 1 1.5 4.5 12 
4969 1 2 4 12 
4970 1 2 4.5 12.5 
4971 2 2.5 4 12.5 
4972 2 2.5 4.5 12 
4973 1 3 4 12 
4974 1 3 4.5 12.5 
4975 1 3.5 4 12.5 
4976 1 3.5 4.5 12 
4977 1 4 4 12 
4978 1 4 4.5 12.5 
4979 1 4.5 4 12.5 
4980 2 4.5 4.5 12 
4981 2 5 4 12 
4982 1 5 4.5 12.5 
4983 1 5.5 4 12.5 
4984 1 5.5 4.5 12 
4985 1 6 4 12 
4986 1 6 4.5 12.5 
4987 1 6.5 4 12.5 
4988 1 6.5 4.5 12 
4989 2 7 4 12 
4990 1 7 4.5 12.5 
4991 1 7.5 4 12.5 
4992 1 7.5 4.5 12 
4993 2 8 4 12 
4994 1 8 4.5 12.5 
4995 1 8.5 4 12.5 
4996 2 8.5 4.5 12 
4997 2 9 4 12 
4998 1 9 4.5 12.5 
4999 1 9.5 4 12.5 
5000 1 9.5 4.5 12 
5001 1 0 5 12 
5002 1 0 5.5 12.5 
5003 1 0.5 5 12.5 
5004 1 0.5 5.5 12 
5005 1 1 5 12 
5006 1 1 5.5 12.5 
5007 2 1.5 5 12.5 
5008 1 1.5 5.5 12 
5009 2 2 5 12 
5010 1 2 5.5 12.5 
5011 1 2.5 5 12.5 
5012 2 2.5 5.5 12 
5013 2 3 5 12 
5014 1 3 5.5 12.5 
5015 1 3.5 5 12.5 
5016 1 3.5 5.5 12 
5017 2 4 5 12 
5018 1 4 5.5 12.5 
5019 2 4.5 5 12.5 
5020 1 4.5 5.5 12 
5021 2 5 5 12 
5022 1 5 5.5 12.5 
5023 1 5.5 5 12.5 
5024 1 5.5 5.5 12 
5025 1 6 5 12 
5026 1 6 5.5 12.5 
5027 2 6.5 5 12.5 
5028 2 6.5 5.5 12 
5029 1 7 5 12 
5030 1 7 5.5 12.5 
5031 2 7.5 5 12.5 
5032 2 7.5 5.5 12 
5033 2 8 5 12 
5034 1 8 5.5 12.5 
5035 2 8.5 5 12.5 
5036 1 8.5 5.5 12 
5037 2 9 5 12 
5038 1 9 5.5 12.5 
5039 2 9.5 5 12.5 
5040 1 9.5 5.5 12 
5041 2 0 6 12 
5042 1 0 6.5 12.5 
5043 2 0.5 6 12.5 
5044 2 0.5 6.5 12 
5045 2 1 6 12 
5046 1 1 6.5 12.5 
5047 1 1.5 6 12.5 
5048 1 1.5 6.5 12 
5049 2 2 6 12 
5050 1 2 6.5 12.5 
5051 1 2.5 6 12.5 
5052 1 2.5 6.5 12 
5053 1 3 6 12 
5054 1 3 6.5 12.5 
5055 1 3.5 6 12.5 
5056 2 3.5 6.5 12 
5057 1 4 6 12 
5058 2 4 6.5 12.5 
5059 1 4.5 6 12.5 
5060 1 4.5 6.5 12 
5061 1 5 6 12 
5062 2 5 6.5 12.5 
5063 2 5.5 6 12.5 
5064 2 5.5 6.5 12 
5065 1 6 6 12 
5066 1 6 6.5 12.5 
5067 2 6.5 6 12.5 
5068 2 6.5 6.5 12 
5069 1 7 6 12 
5070 2 7 6.5 12.5 
5071 1 7.5 6 12.5 
5072 2 7.5 6.5 12 
5073 2 8 6 12 
5074 1 8 6.5 12.5 
5075 1 8.5 6 12.5 
5076 1 8.5 6.5 12 
5077 1 9 6 12 
5078 2 9 6.5 12.5 
5079 2 9.5 6 12.5 
5080 1 9.5 6.5 12 
5081 1 0 7 12 
5082 1 0 7.5 12.5 
5083 2 0.5 7 12.5 
5084 2 0.5 7.5 12 
5085 2 1 7 12 
5086 1 1 7.5 12.5 
5087 1 1.5 7 12.5 
5088 1 1.5 7.5 12 
5089 1 2 7 12 
5090 1 2 7.5 12.5 
5091 1 2.5 7 12.5 
5092 2 2.5 7.5 12 
5093 1 3 7 12 
5094 1 3 7.5 12.5 
5095 1 3.5 7 12.5 
5096 2 3.5 7.5 12 
5097 1 4 7 12 
5098 1 4 7.5 12.5 
5099 1 4.5 7 12.5 
5100 2 4.5 7.5 12 
5101 1 5 7 12 
5102 1 5 7.5 12.5 
5103 1 5.5 7 12.5 
5104 2 5.5 7.5 12 
5105 1 6 7 12 
5106 1 6 7.5 12.5 
5107 2 6.5 7 12.5 
5108 1 6.5 7.5 12 
5109 1 7 7 12 
5110 2 7 7.5 12.5 
5111 1 7.5 7 12.5 
5112 2 7.5 7.5 12 
5113 1 8 7 12 
5114 1 8 7.5 12.5 
5115 2 8.5 7 12.5 
5116 2 8.5 7.5 12 
5117 1 9 7 12 
5118 2 9 7.5 12.5 
5119 1 9.5 7 12.5 
5120 2 9.5 7.5 12 
5121 2 0 8 12 
5122 1 0 8.5 12.5 
5123 1 0.5 8 12.5 
5124 2 0.5 8.5 12 
5125 2 1 8 12 
5126 1 1 8.5 12.5 
5127 1 1.5 8 12.5 
5128 2 1.5 8.5 12 
5129 1 2 8 12 
5130 2 2 8.5 12.5 
5131 1 2.5 8 12.5 
5132 1 2.5 8.5 12 
5133 2 3 8 12 
5134 1 3 8.5 12.5 
5135 1 3.5 8 12.5 
5136 1 3.5 8.5 12 
5137 1 4 8 12 
5138 1 4 8.5 12.5 
5139 1 4.5 8 12.5 
5140 2 4.5 8.5 12 
5141 2 5 8 12 
5142 1 5 8.5 12.5 
5143 2 5.5 8 12.5 
5144 1 5.5 8.5 12 
5145 2 6 8 12 
5146 2 6 8.5 12.5 
5147 1 6.5 8 12.5 
5148 1 6.5 8.5 12 
5149 2 7 8 12 
5150 2 7 8.5 12.5 
5151 1 7.5 8 12.5 
5152 2 7.5 8.5 12 
5153 2 8 8 12 
5154 2 8 8.5 12.5 
5155 1 8.5 8 12.5 
5156 1 8.5 8.5 12 
5157 1 9 8 12 
5158 1 9 8.5 12.5 
5159 1 9.5 8 12.5 
5160 1 9.5 8.5 12 
5161 1 0 9 12 
5162 2 0 9.5 12.5 
5163 2 0.5 9 12.5 
5164 1 0.5 9.5 12 
5165 1 1 9 12 
5166 1 1 9.5 12.5 
5167 2 1.5 9 12.5 
5168 2 1.5 9.5 12 
5169 1 2 9 12 
5170 1 2 9.5 12.5 
5171 2 2.5 9 12.5 
5172 1 2.5 9.5 12 
5173 1 3 9 12 
5174 1 3 9.5 12.5 
5175 2 3.5 9 12.5 
5176 1 3.5 9.5 12 
5177 2 4 9 12 
5178 1 4 9.5 12.5 
5179 2 4.5 9 12.5 
5180 1 4.5 9.5 12 
5181 1 5 9 12 
5182 1 5 9.5 12.5 
5183 1 5.5 9 12.5 
5184 1 5.5 9.5 12 
5185 1 6 9 12 
5186 1 6 9.5 12.5 
5187 1 6.5 9 12.5 
5188 1 6.5 9.5 12 
5189 1 7 9 12 
5190 1 7 9.5 12.5 
5191 1 7.5 9 12.5 
5192 1 7.5 9.5 12 
5193 1 8 9 12 
5194 1 8 9.5 12.5 
5195 2 8.5 9 12.5 
5196 2 8.5 9.5 12 
5197 1 9 9 12 
5198 1 9 9.5 12.5 
5199 2 9.5 9 12.5 
5200 2 9.5 9.5 12 
5201 1 0 0 13 
5202 1 0 0.5 13.5 
5203 1 0.5 0 13.5 
5204 2 0.5 0.5 13 
5205 1 1 0 13 
5206 1 1 0.5 13.5 
5207 2 1.5 0 13.5 
5208 1 1.5 0.5 13 
5209 1 2 0 13 
5210 1 2 0.5 13.5 
5211 1 2.5 0 13.5 
5212 2 2.5 0.5 13 
5213 1 3 0 13 
5214 2 3 0.5 13.5 
5215 1 3.5 0 13.5 
5216 2 3.5 0.5 13 
5217 1 4 0 13 
5218 2 4 0.5 13.5 
5219 1 4.5 0 13.5 
5220 2 4.5 0.5 13 
5221 1 5 0 13 
5222 2 5 0.5 13.5 
5223 2 5.5 0 13.5 
5224 1 5.5 0.5 13 
5225 1 6 0 13 
5226 1 6 0.5 13.5 
5227 1 6.5 0 13.5 
5228 1 6.5 0.5 13 
5229 1 7 0 13 
5230 2 7 0.5 13.5 
5231 1 7.5 0 13.5 
5232 2 7.5 0.5 13 
5233 1 8 0 13 
5234 1 8 0.5 13.5 
5235 1 8.5 0 13.5 
5236 1 8.5 0.5 13 
5237 1 9 0 13 
5238 1 9 0.5 13.5 
5239 1 9.5 0 13.5 
5240 1 9.5 0.5 13 
5241 1 0 1 13 
5242 1 0 1.5 13.5 
5243 1 0.5 1 13.5 
5244 2 0.5 1.5 13 
5245 1 1 1 13 
5246 2 1 1.5 13.5 
5247 1 1.5 1 13.5 
5248 1 1.5 1.5 13 
5249 1 2 1 13 
5250 1 2 1.5 13.5 
5251 1 2.5 1 13.5 
5252 1 2.5 1.5 13 
5253 1 3 1 13 
5254 1 3 1.5 13.5 
5255 1 3.5 1 13.5 
5256 1 3.5 1.5 13 
5257 1 4 1 13 
5258 1 4 1.5 13.5 
5259 1 4.5 1 13.5 
5260 1 4.5 1.5 13 
5261 1 5 1 13 
5262 2 5 1.5 13.5 
5263 1 5.5 1 13.5 
5264 1 5.5 1.5 13 
5265 1 6 1 13 
5266 2 6 1.5 13.5 
5267 1 6.5 1 13.5 
5268 2 6.5 1.5 13 
5269 2 7 1 13 
5270 2 7 1.5 13.5 
5271 2 7.5 1 13.5 
5272 2 7.5 1.5 13 
5273 1 8 1 13 
5274 2 8 1.5 13.5 
5275 1 8.5 1 13.5 
5276 1 8.5 1.5 13 
5277 1 9 1 13 
5278 2 9 1.5 13.5 
5279 1 9.5 1 13.5 
5280 2 9.5 1.5 13 
5281 1 0 2 13 
5282 1 0 2.5 13.5 
5283 2 0.5 2 13.5 
5284 1 0.5 2.5 13 
5285 2 1 2 13 
5286 2 1 2.5 13.5 
5287 1 1.5 2 13.5 
5288 1 1.5 2.5 13 
5289 1 2 2 13 
5290 2 2 2.5 13.5 
5291 2 2.5 2 13.5 
5292 1 2.5 2.5 13 
5293 1 3 2 13 
5294 2 3 2.5 13.5 
5295 2 3.5 2 13.5 
5296 1 3.5 2.5 13 
5297 1 4 2 13 
5298 1 4 2.5 13.5 
5299 1 4.5 2 13.5 
5300 1 4.5 2.5 13 
5301 1 5 2 13 
5302 1 5 2.5 13.5 
5303 1 5.5 2 13.5 
5304 2 5.5 2.5 13 
5305 1 6 2 13 
5306 2 6 2.5 13.5 
5307 1 6.5 2 13.5 
5308 1 6.5 2.5 13 
5309 1 7 2 13 
5310 1 7 2.5 13.5 
5311 1 7.5 2 13.5 
5312 1 7.5 2.5 13 
5313 1 8 2 13 
5314 1 8 2.5 13.5 
5315 1 8.5 2 13.5 
5316 2 8.5 2.5 13 
5317 1 9 2 13 
5318 1 9 2.5 13.5 
5319 1 9.5 2 13.5 
5320 2 9.5 2.5 13 
5321 2 0 3 13 
5322 1 0 3.5 13.5 
5323 1 0.5 3 13.5 
5324 1 0.5 3.5 13 
5325 2 1 3 13 
5326 1 1 3.5 13.5 
5327 2 1.5 3 13.5 
5328 1 1.5 3.5 13 
5329 1 2 3 13 
5330 1 2 3.5 13.5 
5331 1 2.5 3 13.5 
5332 2 2.5 3.5 13 
5333 1 3 3 13 
5334 1 3 3.5 13.5 
5335 2 3.5 3 13.5 
5336 1 3.5 3.5 13 
5337 1 4 3 13 
5338 1 4 3.5 13.5 
5339 1 4.5 3 13.5 
5340 1 4.5 3.5 13 
5341 1 5 3 13 
5342 2 5 3.5 13.5 
5343 1 5.5 3 13.5 
5344 1 5.5 3.5 13 
5345 1 6 3 13 
5346 1 6 3.5 13.5 
5347 1 6.5 3 13.5 
5348 2 6.5 3.5 13 
5349 1 7 3 13 
5350 2 7 3.5 13.5 
5351 1 7.5 3 13.5 
5352 1 7.5 3.5 13 
5353 1 8 3 13 
5354 1 8 3.5 13.5 
5355 1 8.5 3 13.5 
5356 1 8.5 3.5 13 
5357 1 9 3 13 
5358 2 9 3.5 13.5 
5359 1 9.5 3 13.5 
5360 2 9.5 3.5 13 
5361 2 0 4 13 
5362 1 0 4.5 13.5 
5363 2 0.5 4 13.5 
5364 1 0.5 4.5 13 
5365 2 1 4 13 
5366 1 1 4.5 13.5 
5367 1 1.5 4 13.5 
5368 1 1.5 4.5 13 
5369 2 2 4 13 
5370 2 2 4.5 13.5 
5371 1 2.5 4 13.5 
5372 1 2.5 4.5 13 
5373 1 3 4 13 
5374 1 3 4.5 13.5 
5375 1 3.5 4 13.5 
5376 1 3.5 4.5 13 
5377 1 4 4 13 
5378 1 4 4.5 13.5 
5379 1 4.5 4 13.5 
5380 2 4.5 4.5 13 
5381 1 5 4 13 
5382 1 5 4.5 13.5 
5383 1 5.5 4 13.5 
5384 2 5.5 4.5 13 
5385 2 6 4 13 
5386 1 6 4.5 13.5 
5387 2 6.5 4 13.5 
5388 1 6.5 4.5 13 
5389 1 7 4 13 
5390 2 7 4.5 13.5 
5391 2 7.5 4 13.5 
5392 1 7.5 4.5 13 
5393 1 8 4 13 
5394 2 8 4.5 13.5 
5395 1 8.5 4 13.5 
5396 2 8.5 4.5 13 
5397 1 9 4 13 
5398 1 9 4.5 13.5 
5399 1 9.5 4 13.5 
5400 2 9.5 4.5 13 
5401 1 0 5 13 
5402 1 0 5.5 13.5 
5403 1 0.5 5 13.5 
5404 1 0.5 5.5 13 
5405 1 1 5 13 
5406 1 1 5.5 13.5 
5407 1 1.5 5 13.5 
5408 1 1.5 5.5 13 
5409 1 2 5 13 
5410 2 2 5.5 13.5 
5411 2 2.5 5 13.5 
5412 1 2.5 5.5 13 
5413 1 3 5 13 
5414 1 3 5.5 13.5 
5415 2 3.5 5 13.5 
5416 1 3.5 5.5 13 
5417 1 4 5 13 
5418 1 4 5.5 13.5 
5419 2 4.5 5 13.5 
5420 1 4.5 5.5 13 
5421 1 5 5 13 
5422 1 5 5.5 13.5 
5423 2 5.5 5 13.5 
5424 2 5.5 5.5 13 
5425 2 6 5 13 
5426 1 6 5.5 13.5 
5427 1 6.5 5 13.5 
5428 1 6.5 5.5 13 
5429 1 7 5 13 
5430 1 7 5.5 13.5 
5431 1 7.5 5 13.5 
5432 1 7.5 5.5 13 
5433 2 8 5 13 
5434 1 8 5.5 13.5 
5435 1 8.5 5 13.5 
5436 1 8.5 5.5 13 
5437 2 9 5 13 
5438 1 9 5.5 13.5 
5439 1 9.5 5 13.5 
5440 1 9.5 5.5 13 
5441 1 0 6 13 
5442 2 0 6.5 13.5 
5443 2 0.5 6 13.5 
5444 2 0.5 6.5 13 
5445 1 1 6 13 
5446 1 1 6.5 13.5 
5447 1 1.5 6 13.5 
5448 1 1.5 6.5 13 
5449 1 2 6 13 
5450 2 2 6.5 13.5 
5451 1 2.5 6 13.5 
5452 2 2.5 6.5 13 
5453 2 3 6 13 
5454 1 3 6.5 13.5 
5455 1 3.5 6 13.5 
5456 1 3.5 6.5 13 
5457 1 4 6 13 
5458 1 4 6.5 13.5 
5459 1 4.5 6 13.5 
5460 1 4.5 6.5 13 
5461 2 5 6 13 
5462 1 5 6.5 13.5 
5463 2 5.5 6 13.5 
5464 1 5.5 6.5 13 
5465 1 6 6 13 
5466 1 6 6.5 13.5 
5467 1 6.5 6 13.5 
5468 1 6.5 6.5 13 
5469 1 7 6 13 
5470 1 7 6.5 13.5 
5471 1 7.5 6 13.5 
5472 1 7.5 6.5 13 
5473 2 8 6 13 
5474 2 8 6.5 13.5 
5475 2 8.5 6 13.5 
5476 2 8.5 6.5 13 
5477 1 9 6 13 
5478 1 9 6.5 13.5 
5479 1 9.5 6 13.5 
5480 1 9.5 6.5 13 
5481 1 0 7 13 
5482 2 0 7.5 13.5 
5483 2 0.5 7 13.5 
5484 2 0.5 7.5 13 
5485 1 1 7 13 
5486 1 1 7.5 13.5 
5487 1 1.5 7 13.5 
5488 2 1.5 7.5 13 
5489 1 2 7 13 
5490 1 2 7.5 13.5 
5491 1 2.5 7 13.5 
5492 2 2.5 7.5 13 
5493 1 3 7 13 
5494 1 3 7.5 13.5 
5495 1 3.5 7 13.5 
5496 1 3.5 7.5 13 
5497 1 4 7 13 
5498 1 4 7.5 13.5 
5499 1 4.5 7 13.5 
5500 1 4.5 7.5 13 
5501 1 5 7 13 
5502 2 5 7.5 13.5 
5503 2 5.5 7 13.5 
5504 1 5.5 7.5 13 
5505 1 6 7 13 
5506 1 6 7.5 13.5 
5507 1 6.5 7 13.5 
5508 2 6.5 7.5 13 
5509 1 7 7 13 
5510 1 7 7.5 13.5 
5511 1 7.5 7 13.5 
5512 2 7.5 7.5 13 
5513 2 8 7 13 
5514 1 8 7.5 13.5 
5515 1 8.5 7 13.5 
5516 1 8.5 7.5 13 
5517 1 9 7 13 
5518 1 9 7.5 13.5 
5519 2 9.5 7 13.5 
5520 1 9.5 7.5 13 
5521 1 0 8 13 
5522 2 0 8.5 13.5 
5523 2 0.5 8 13.5 
5524 1 0.5 8.5 13 
5525 1 1 8 13 
5526 1 1 8.5 13.5 
5527 2 1.5 8 13.5 
5528 2 1.5 8.5 13 
5529 2 2 8 13 
5530 1 2 8.5 13.5 
5531 2 2.5 8 13.5 
5532 1 2.5 8.5 13 
5533 1 3 8 13 
5534 1 3 8.5 13.5 
5535 2 3.5 8 13.5 
5536 2 3.5 8.5 13 
5537 1 4 8 13 
5538 2 4 8.5 13.5 
5539 2 4.5 8 13.5 
5540 2 4.5 8.5 13 
5541 1 5 8 13 
5542 1 5 8.5 13.5 
5543 2 5.5 8 13.5 
5544 1 5.5 8.5 13 
5545 2 6 8 13 
5546 1 6 8.5 13.5 
5547 2 6.5 8 13.5 
5548 2 6.5 8.5 13 
5549 2 7 8 13 
5550 2 7 8.5 13.5 
5551 1 7.5 8 13.5 
5552 1 7.5 8.5 13 
5553 1 8 8 13 
5554 1 8 8.5 13.5 
5555 1 8.5 8 13.5 
5556 1 8.5 8.5 13 
5557 1 9 8 13 
5558 1 9 8.5 13.5 
5559 2 9.5 8 13.5 
5560 2 9.5 8.5 13 
5561 1 0 9 13 
5562 2 0 9.5 13.5 
5563 2 0.5 9 13.5 
5564 1 0.5 9.5 13 
5565 2 1 9 13 
5566 1 1 9.5 13.5 
5567 2 1.5 9 13.5 
5568 1 1.5 9.5 13 
5569 2 2 9 13 
5570 1 2 9.5 13.5 
5571 1 2.5 9 13.5 
5572 1 2.5 9.5 13 
5573 1 3 9 13 
5574 1 3 9.5 13.5 
5575 1 3.5 9 13.5 
5576 1 3.5 9.5 13 
5577 1 4 9 13 
5578 1 4 9.5 13.5 
5579 2 4.5 9 13.5 
5580 1 4.5 9.5 13 
5581 1 5 9 13 
5582 1 5 9.5 13.5 
5583 1 5.5 9 13.5 
5584 1 5.5 9.5 13 
5585 2 6 9 13 
5586 1 6 9.5 13.5 
5587 1 6.5 9 13.5 
5588 1 6.5 9.5 13 
5589 2 7 9 13 
5590 1 7 9.5 13.5 
5591 1 7.5 9 13.5 
5592 1 7.5 9.5 13 
5593 2 8 9 13 
5594 1 8 9.5 13.5 
5595 1 8.5 9 13.5 
5596 1 8.5 9.5 13 
5597 1 9 9 13 
5598 1 9 9.5 13.5 
5599 1 9.5 9 13.5 
5600 1 9.5 9.5 13 
5601 2 0 0 14 
5602 2 0 0.5 14.5 
5603 1 0.5 0 14.5 
5604 2 0.5 0.5 14 
5605 1 1 0 14 
5606 1 1 0.5 14.5 
5607 1 1.5 0 14.5 
5608 1 1.5 0.5 14 
5609 1 2 0 14 
5610 2 2 0.5 14.5 
5611 1 2.5 0 14.5 
5612 1 2.5 0.5 14 
5613 1 3 0 14 
5614 2 3 0.5 14.5 
5615 1 3.5 0 14.5 
5616 1 3.5 0.5 14 
5617 2 4 0 14 
5618 2 4 0.5 14.5 
5619 1 4.5 0 14.5 
5620 1 4.5 0.5 14 
5621 1 5 0 14 
5622 1 5 0.5 14.5 
5623 1 5.5 0 14.5 
5624 1 5.5 0.5 14 
5625 2 6 0 14 
5626 1 6 0.5 14.5 
5627 1 6.5 0 14.5 
5628 2 6.5 0.5 14 
5629 1 7 0 14 
5630 2 7 0.5 14.5 
5631 1 7.5 0 14.5 
5632 1 7.5 0.5 14 
5633 1 8 0 14 
5634 2 8 0.5 14.5 
5635 1 8.5 0 14.5 
5636 1 8.5 0.5 14 
5637 1 9 0 14 
5638 1 9 0.5 14.5 
5639 1 9.5 0 14.5 
5640 1 9.5 0.5 14 
5641 1 0 1 14 
5642 1 0 1.5 14.5 
5643 1 0.5 1 14.5 
5644 1 0.5 1.5 14 
5645 1 1 1 14 
5646 2 1 1.5 14.5 
5647 2 1.5 1 14.5 
5648 1 1.5 1.5 14 
5649 1 2 1 14 
5650 1 2 1.5 14.5 
5651 2 2.5 1 14.5 
5652 1 2.5 1.5 14 
5653 2 3 1 14 
5654 2 3 1.5 14.5 
5655 1 3.5 1 14.5 
5656 1 3.5 1.5 14 
5657 2 4 1 14 
5658 1 4 1.5 14.5 
5659 1 4.5 1 14.5 
5660 1 4.5 1.5 14 
5661 1 5 1 14 
5662 1 5 1.5 14.5 
5663 1 5.5 1 14.5 
5664 1 5.5 1.5 14 
5665 2 6 1 14 
5666 1 6 1.5 14.5 
5667 1 6.5 1 14.5 
5668 1 6.5 1.5 14 
5669 2 7 1 14 
5670 1 7 1.5 14.5 
5671 2 7.5 1 14.5 
5672 1 7.5 1.5 14 
5673 2 8 1 14 
5674 1 8 1.5 14.5 
5675 1 8.5 1 14.5 
5676 1 8.5 1.5 14 
5677 1 9 1 14 
5678 2 9 1.5 14.5 
5679 2 9.5 1 14.5 
5680 2 9.5 1.5 14 
5681 1 0 2 14 
5682 2 0 2.5 14.5 
5683 2 0.5 2 14.5 
5684 2 0.5 2.5 14 
5685 2 1 2 14 
5686 1 1 2.5 14.5 
5687 2 1.5 2 14.5 
5688 1 1.5 2.5 14 
5689 1 2 2 14 
5690 1 2 2.5 14.5 
5691 2 2.5 2 14.5 
5692 2 2.5 2.5 14 
5693 1 3 2 14 
5694 1 3 2.5 14.5 
5695 1 3.5 2 14.5 
5696 1 3.5 2.5 14 
5697 2 4 2 14 
5698 2 4 2.5 14.5 
5699 1 4.5 2 14.5 
5700 2 4.5 2.5 14 
5701 1 5 2 14 
5702 2 5 2.5 14.5 
5703 1 5.5 2 14.5 
5704 1 5.5 2.5 14 
5705 1 6 2 14 
5706 1 6 2.5 14.5 
5707 2 6.5 2 14.5 
5708 2 6.5 2.5 14 
5709 1 7 2 14 
5710 2 7 2.5 14.5 
5711 1 7.5 2 14.5 
5712 1 7.5 2.5 14 
5713 2 8 2 14 
5714 2 8 2.5 14.5 
5715 2 8.5 2 14.5 
5716 2 8.5 2.5 14 
5717 1 9 2 14 
5718 1 9 2.5 14.5 
5719 1 9.5 2 14.5 
5720 1 9.5 2.5 14 
5721 2 0 3 14 
5722 1 0 3.5 14.5 
5723 2 0.5 3 14.5 
5724 1 0.5 3.5 14 
5725 2 1 3 14 
5726 1 1 3.5 14.5 
5727 1 1.5 3 14.5 
5728 1 1.5 3.5 14 
5729 1 2 3 14 
5730 2 2 3.5 14.5 
5731 1 2.5 3 14.5 
5732 1 2.5 3.5 14 
5733 1 3 3 14 
5734 1 3 3.5 14.5 
5735 1 3.5 3 14.5 
5736 2 3.5 3.5 14 
5737 1 4 3 14 
5738 1 4 3.5 14.5 
5739 2 4.5 3 14.5 
5740 2 4.5 3.5 14 
5741 1 5 3 14 
5742 1 5 3.5 14.5 
5743 1 5.5 3 14.5 
5744 1 5.5 3.5 14 
5745 1 6 3 14 
5746 1 6 3.5 14.5 
5747 2 6.5 3 14.5 
5748 2 6.5 3.5 14 
5749 2 7 3 14 
5750 2 7 3.5 14.5 
5751 1 7.5 3 14.5 
5752 1 7.5 3.5 14 
5753 1 8 3 14 
5754 1 8 3.5 14.5 
5755 1 8.5 3 14.5 
5756 2 8.5 3.5 14 
5757 1 9 3 14 
5758 2 9 3.5 14.5 
5759 1 9.5 3 14.5 
5760 1 9.5 3.5 14 
5761 1 0 4 14 
5762 1 0 4.5 14.5 
5763 1 0.5 4 14.5 
5764 1 0.5 4.5 14 
5765 1 1 4 14 
5766 1 1 4.5 14.5 
5767 1 1.5 4 14.5 
5768 1 1.5 4.5 14 
5769 2 2 4 14 
5770 1 2 4.5 14.5 
5771 1 2.5 4 14.5 
5772 2 2.5 4.5 14 
5773 1 3 4 14 
5774 1 3 4.5 14.5 
5775 1 3.5 4 14.5 
5776 1 3.5 4.5 14 
5777 1 4 4 14 
5778 2 4 4.5 14.5 
5779 1 4.5 4 14.5 
5780 1 4.5 4.5 14 
5781 1 5 4 14 
5782 2 5 4.5 14.5 
5783 2 5.5 4 14.5 
5784 1 5.5 4.5 14 
5785 1 6 4 14 
5786 1 6 4.5 14.5 
5787 2 6.5 4 14.5 
5788 1 6.5 4.5 14 
5789 2 7 4 14 
5790 1 7 4.5 14.5 
5791 1 7.5 4 14.5 
5792 1 7.5 4.5 14 
5793 1 8 4 14 
5794 1 8 4.5 14.5 
5795 1 8.5 4 14.5 
5796 2 8.5 4.5 14 
5797 1 9 4 14 
5798 2 9 4.5 14.5 
5799 1 9.5 4 14.5 
5800 1 9.5 4.5 14 
5801 1 0 5 14 
5802 1 0 5.5 14.5 
5803 1 0.5 5 14.5 
5804 1 0.5 5.5 14 
5805 1 1 5 14 
5806 1 1 5.5 14.5 
5807 1 1.5 5 14.5 
5808 1 1.5 5.5 14 
5809 1 2 5 14 
5810 2 2 5.5 14.5 
5811 1 2.5 5 14.5 
5812 1 2.5 5.5 14 
5813 2 3 5 14 
5814 1 3 5.5 14.5 
5815 1 3.5 5 14.5 
5816 1 3.5 5.5 14 
5817 2 4 5 14 
5818 1 4 5.5 14.5 
5819 2 4.5 5 14.5 
5820 1 4.5 5.5 14 
5821 1 5 5 14 
5822 2 5 5.5 14.5 
5823 1 5.5 5 14.5 
5824 2 5.5 5.5 14 
5825 1 6 5 14 
5826 2 6 5.5 14.5 
5827 1 6.5 5 14.5 
5828 1 6.5 5.5 14 
5829 1 7 5 14 
5830 2 7 5.5 14.5 
5831 1 7.5 5 14.5 
5832 1 7.5 5.5 14 
5833 1 8 5 14 
5834 2 8 5.5 14.5 
5835 2 8.5 5 14.5 
5836 2 8.5 5.5 14 
5837 1 9 5 14 
5838 1 9 5.5 14.5 
5839 2 9.5 5 14.5 
5840 1 9.5 5.5 14 
5841 2 0 6 14 
5842 1 0 6.5 14.5 
5843 1 0.5 6 14.5 
5844 2 0.5 6.5 14 
5845 1 1 6 14 
5846 1 1 6.5 14.5 
5847 2 1.5 6 14.5 
5848 1 1.5 6.5 14 
5849 1 2 6 14 
5850 1 2 6.5 14.5 
5851 1 2.5 6 14.5 
5852 1 2.5 6.5 14 
5853 1 3 6 14 
5854 1 3 6.5 14.5 
5855 1 3.5 6 14.5 
5856 1 3.5 6.5 14 
5857 1 4 6 14 
5858 1 4 6.5 14.5 
5859 2 4.5 6 14.5 
5860 1 4.5 6.5 14 
5861 1 5 6 14 
5862 2 5 6.5 14.5 
5863 1 5.5 6 14.5 
5864 1 5.5 6.5 14 
5865 1 6 6 14 
5866 1 6 6.5 14.5 
5867 1 6.5 6 14.5 
5868 1 6.5 6.5 14 
5869 1 7 6 14 
5870 2 7 6.5 14.5 
5871 1 7.5 6 14.5 
5872 1 7.5 6.5 14 
5873 1 8 6 14 
5874 1 8 6.5 14.5 
5875 1 8.5 6 14.5 
5876 1 8.5 6.5 14 
5877 1 9 6 14 
5878 1 9 6.5 14.5 
5879 1 9.5 6 14.5 
5880 1 9.5 6.5 14 
5881 1 0 7 14 
5882 1 0 7.5 14.5 
5883 2 0.5 7 14.5 
5884 1 0.5 7.5 14 
5885 1 1 7 14 
5886 1 1 7.5 14.5 
5887 1 1.5 7 14.5 
5888 2 1.5 7.5 14 
5889 2 2 7 14 
5890 1 2 7.5 14.5 
5891 2 2.5 7 14.5 
5892 1 2.5 7.5 14 
5893 1 3 7 14 
5894 2 3 7.5 14.5 
5895 1 3.5 7 14.5 
5896 2 3.5 7.5 14 
5897 1 4 7 14 
5898 2 4 7.5 14.5 
5899 2 4.5 7 14.5 
5900 1 4.5 7.5 14 
5901 2 5 7 14 
5902 1 5 7.5 14.5 
5903 1 5.5 7 14.5 
5904 1 5.5 7.5 14 
5905 1 6 7 14 
5906 2 6 7.5 14.5 
5907 1 6.5 7 14.5 
5908 1 6.5 7.5 14 
5909 1 7 7 14 
5910 1 7 7.5 14.5 
5911 1 7.5 7 14.5 
5912 1 7.5 7.5 14 
5913 1 8 7 14 
5914 1 8 7.5 14.5 
5915 2 8.5 7 14.5 
5916 2 8.5 7.5 14 
5917 1 9 7 14 
5918 1 9 7.5 14.5 
5919 2 9.5 7 14.5 
5920 1 9.5 7.5 14 
5921 1 0 8 14 
5922 1 0 8.5 14.5 
5923 1 0.5 8 14.5 
5924 1 0.5 8.5 14 
5925 1 1 8 14 
5926 2 1 8.5 14.5 
5927 1 1.5 8 14.5 
5928 1 1.5 8.5 14 
5929 2 2 8 14 
5930 1 2 8.5 14.5 
5931 1 2.5 8 14.5 
5932 1 2.5 8.5 14 
5933 2 3 8 14 
5934 1 3 8.5 14.5 
5935 1 3.5 8 14.5 
5936 1 3.5 8.5 14 
5937 1 4 8 14 
5938 2 4 8.5 14.5 
5939 1 4.5 8 14.5 
5940 1 4.5 8.5 14 
5941 1 5 8 14 
5942 1 5 8.5 14.5 
5943 1 5.5 8 14.5 
5944 1 5.5 8.5 14 
5945 1 6 8 14 
5946 1 6 8.5 14.5 
5947 2 6.5 8 14.5 
5948 1 6.5 8.5 14 
5949 1 7 8 14 
5950 1 7 8.5 14.5 
5951 1 7.5 8 14.5 
5952 1 7.5 8.5 14 
5953 1 8 8 14 
5954 2 8 8.5 14.5 
5955 1 8.5 8 14.5 
5956 2 8.5 8.5 14 
5957 2 9 8 14 
5958 2 9 8.5 14.5 
5959 1 9.5 8 14.5 
5960 1 9.5 8.5 14 
5961 1 0 9 14 
5962 1 0 9.5 14.5 
5963 2 0.5 9 14.5 
5964 2 0.5 9.5 14 
5965 1 1 9 14 
5966 1 1 9.5 14.5 
5967 1 1.5 9 14.5 
5968 1 1.5 9.5 14 
5969 1 2 9 14 
5970 1 2 9.5 14.5 
5971 1 2.5 9 14.5 
5972 1 2.5 9.5 14 
5973 1 3 9 14 
5974 1 3 9.5 14.5 
5975 1 3.5 9 14.5 
5976 1 3.5 9.5 14 
5977 2 4 9 14 
5978 1 4 9.5 14.5 
5979 1 4.5 9 14.5 
5980 1 4.5 9.5 14 
5981 1 5 9 14 
5982 1 5 9.5 14.5 
5983 1 5.5 9 14.5 
5984 1 5.5 9.5 14 
5985 1 6 9 14 
5986 1 6 9.5 14.5 
5987 2 6.5 9 14.5 
5988 2 6.5 9.5 14 
5989 1 7 9 14 
5990 1 7 9.5 14.5 
5991 1 7.5 9 14.5 
5992 1 7.5 9.5 14 
5993 1 8 9 14 
5994 1 8 9.5 14.5 
5995 2 8.5 9 14.5 
5996 1 8.5 9.5 14 
5997 1 9 9 14 
5998 2 9 9.5 14.5 
5999 1 9.5 9 14.5 
6000 1 9.5 9.5 14 
6001 1 0 0 15 
6002 2 0 0.5 15.5 
6003 1 0.5 0 15.5 
6004 1 0.5 0.5 15 
6005 1 1 0 15 
6006 1 1 0.5 15.5 
6007 1 1.5 0 15.5 
6008 1 1.5 0.5 15 
6009 1 2 0 15 
6010 1 2 0.5 15.5 
6011 2 2.5 0 15.5 
6012 1 2.5 0.5 15 
6013 2 3 0 15 
6014 1 3 0.5 15.5 
6015 1 3.5 0 15.5 
6016 2 3.5 0.5 15 
6017 1 4 0 15 
6018 1 4 0.5 15.5 
6019 1 4.5 0 15.5 
6020 2 4.5 0.5 15 
6021 1 5 0 15 
6022 1 5 0.5 15.5 
6023 1 5.5 0 15.5 
6024 1 5.5 0.5 15 
6025 1 6 0 15 
6026 1 6 0.5 15.5 
6027 1 6.5 0 15.5 
6028 1 6.5 0.5 15 
6029 1 7 0 15 
6030 1 7 0.5 15.5 
6031 2 7.5 0 15.5 
6032 1 7.5 0.5 15 
6033 1 8 0 15 
6034 1 8 0.5 15.5 
6035 1 8.5 0 15.5 
6036 1 8.5 0.5 15 
6037 2 9 0 15 
6038 1 9 0.5 15.5 
6039 2 9.5 0 15.5 
6040 1 9.5 0.5 15 
6041 1 0 1 15 
6042 1 0 1.5 15.5 
6043 2 0.5 1 15.5 
6044 1 0.5 1.5 15 
6045 1 1 1 15 
6046 1 1 1.5 15.5 
6047 1 1.5 1 15.5 
6048 1 1.5 1.5 15 
6049 2 2 1 15 
6050 1 2 1.5 15.5 
6051 1 2.5 1 15.5 
6052 2 2.5 1.5 15 
6053 1 3 1 15 
6054 2 3 1.5 15.5 
6055 1 3.5 1 15.5 
6056 1 3.5 1.5 15 
6057 1 4 1 15 
6058 1 4 1.5 15.5 
6059 1 4.5 1 15.5 
6060 1 4.5 1.5 15 
6061 1 5 1 15 
6062 1 5 1.5 15.5 
6063 2 5.5 1 15.5 
6064 1 5.5 1.5 15 
6065 2 6 1 15 
6066 1 6 1.5 15.5 
6067 2 6.5 1 15.5 
6068 1 6.5 1.5 15 
6069 1 7 1 15 
6070 1 7 1.5 15.5 
6071 2 7.5 1 15.5 
6072 1 7.5 1.5 15 
6073 1 8 1 15 
6074 2 8 1.5 15.5 
6075 1 8.5 1 15.5 
6076 1 8.5 1.5 15 
6077 1 9 1 15 
6078 1 9 1.5 15.5 
6079 1 9.5 1 15.5 
6080 1 9.5 1.5 15 
6081 1 0 2 15 
6082 1 0 2.5 15.5 
6083 1 0.5 2 15.5 
6084 2 0.5 2.5 15 
6085 2 1 2 15 
6086 1 1 2.5 15.5 
6087 2 1.5 2 15.5 
6088 1 1.5 2.5 15 
6089 2 2 2 15 
6090 1 2 2.5 15.5 
6091 1 2.5 2 15.5 
6092 1 2.5 2.5 15 
6093 2 3 2 15 
6094 1 3 2.5 15.5 
6095 1 3.5 2 15.5 
6096 2 3.5 2.5 15 
6097 2 4 2 15 
6098 1 4 2.5 15.5 
6099 1 4.5 2 15.5 
6100 1 4.5 2.5 15 
6101 2 5 2 15 
6102 1 5 2.5 15.5 
6103 1 5.5 2 15.5 
6104 2 5.5 2.5 15 
6105 1 6 2 15 
6106 1 6 2.5 15.5 
6107 1 6.5 2 15.5 
6108 1 6.5 2.5 15 
6109 1 7 2 15 
6110 2 7 2.5 15.5 
6111 2 7.5 2 15.5 
6112 1 7.5 2.5 15 
6113 1 8 2 15 
6114 1 8 2.5 15.5 
6115 1 8.5 2 15.5 
6116 2 8.5 2.5 15 
6117 1 9 2 15 
6118 2 9 2.5 15.5 
6119 1 9.5 2 15.5 
6120 1 9.5 2.5 15 
6121 1 0 3 15 
6122 1 0 3.5 15.5 
6123 1 0.5 3 15.5 
6124 1 0.5 3.5 15 
6125 1 1 3 15 
6126 2 1 3.5 15.5 
6127 1 1.5 3 15.5 
6128 1 1.5 3.5 15 
6129 2 2 3 15 
6130 1 2 3.5 15.5 
6131 2 2.5 3 15.5 
6132 1 2.5 3.5 15 
6133 2 3 3 15 
6134 1 3 3.5 15.5 
6135 1 3.5 3 15.5 
6136 1 3.5 3.5 15 
6137 2 4 3 15 
6138 2 4 3.5 15.5 
6139 1 4.5 3 15.5 
6140 2 4.5 3.5 15 
6141 1 5 3 15 
6142 1 5 3.5 15.5 
6143 1 5.5 3 15.5 
6144 2 5.5 3.5 15 
6145 2 6 3 15 
6146 1 6 3.5 15.5 
6147 1 6.5 3 15.5 
6148 1 6.5 3.5 15 
6149 1 7 3 15 
6150 1 7 3.5 15.5 
6151 1 7.5 3 15.5 
6152 2 7.5 3.5 15 
6153 1 8 3 15 
6154 1 8 3.5 15.5 
6155 2 8.5 3 15.5 
6156 2 8.5 3.5 15 
6157 1 9 3 15 
6158 1 9 3.5 15.5 
6159 2 9.5 3 15.5 
6160 1 9.5 3.5 15 
6161 1 0 4 15 
6162 2 0 4.5 15.5 
6163 1 0.5 4 15.5 
6164 1 0.5 4.5 15 
6165 1 1 4 15 
6166 1 1 4.5 15.5 
6167 2 1.5 4 15.5 
6168 1 1.5 4.5 15 
6169 1 2 4 15 
6170 1 2 4.5 15.5 
6171 1 2.5 4 15.5 
6172 1 2.5 4.5 15 
6173 1 3 4 15 
6174 1 3 4.5 15.5 
6175 2 3.5 4 15.5 
6176 1 3.5 4.5 15 
6177 1 4 4 15 
6178 2 4 4.5 15.5 
6179 1 4.5 4 15.5 
6180 1 4.5 4.5 15 
6181 2 5 4 15 
6182 1 5 4.5 15.5 
6183 2 5.5 4 15.5 
6184 2 5.5 4.5 15 
6185 1 6 4 15 
6186 1 6 4.5 15.5 
6187 1 6.5 4 15.5 
6188 2 6.5 4.5 15 
6189 2 7 4 15 
6190 1 7 4.5 15.5 
6191 1 7.5 4 15.5 
6192 2 7.5 4.5 15 
6193 1 8 4 15 
6194 1 8 4.5 15.5 
6195 2 8.5 4 15.5 
6196 1 8.5 4.5 15 
6197 1 9 4 15 
6198 1 9 4.5 15.5 
6199 2 9.5 4 15.5 
6200 2 9.5 4.5 15 
6201 1 0 5 15 
6202 1 0 5.5 15.5 
6203 1 0.5 5 15.5 
6204 1 0.5 5.5 15 
6205 2 1 5 15 
6206 1 1 5.5 15.5 
6207 1 1.5 5 15.5 
6208 1 1.5 5.5 15 
6209 1 2 5 15 
6210 1 2 5.5 15.5 
6211 1 2.5 5 15.5 
6212 1 2.5 5.5 15 
6213 1 3 5 15 
6214 1 3 5.5 15.5 
6215 1 3.5 5 15.5 
6216 1 3.5 5.5 15 
6217 1 4 5 15 
6218 1 4 5.5 15.5 
6219 1 4.5 5 15.5 
6220 1 4.5 5.5 15 
6221 1 5 5 15 
6222 1 5 5.5 15.5 
6223 1 5.5 5 15.5 
6224 1 5.5 5.5 15 
6225 1 6 5 15 
6226 1 6 5.5 15.5 
6227 1 6.5 5 15.5 
6228 1 6.5 5.5 15 
6229 1 7 5 15 
6230 1 7 5.5 15.5 
6231 1 7.5 5 15.5 
6232 1 7.5 5.5 15 
6233 1 8 5 15 
6234 1 8 5.5 15.5 
6235 2 8.5 5 15.5 
6236 2 8.5 5.5 15 
6237 1 9 5 15 
6238 1 9 5.5 15.5 
6239 1 9.5 5 15.5 
6240 2 9.5 5.5 15 
6241 1 0 6 15 
6242 2 0 6.5 15.5 
6243 1 0.5 6 15.5 
6244 1 0.5 6.5 15 
6245 1 1 6 15 
6246 2 1 6.5 15.5 
6247 1 1.5 6 15.5 
6248 1 1.5 6.5 15 
6249 1 2 6 15 
6250 1 2 6.5 15.5 
6251 1 2.5 6 15.5 
6252 1 2.5 6.5 15 
6253 2 3 6 15 
6254 1 3 6.5 15.5 
6255 2 3.5 6 15.5 
6256 2 3.5 6.5 15 
6257 1 4 6 15 
6258 1 4 6.5 15.5 
6259 1 4.5 6 15.5 
6260 2 4.5 6.5 15 
6261 1 5 6 15 
6262 1 5 6.5 15.5 
6263 1 5.5 6 15.5 
6264 1 5.5 6.5 15 
6265 1 6 6 15 
6266 2 6 6.5 15.5 
6267 1 6.5 6 15.5 
6268 2 6.5 6.5 15 
6269 1 7 6 15 
6270 1 7 6.5 15.5 
6271 2 7.5 6 15.5 
6272 1 7.5 6.5 15 
6273 1 8 6 15 
6274 1 8 6.5 15.5 
6275 2 8.5 6 15.5 
6276 1 8.5 6.5 15 
6277 2 9 6 15 
6278 1 9 6.5 15.5 
6279 1 9.5 6 15.5 
6280 1 9.5 6.5 15 
6281 2 0 7 15 
6282 2 0 7.5 15.5 
6283 1 0.5 7 15.5 
6284 1 0.5 7.5 15 
6285 1 1 7 15 
6286 1 1 7.5 15.5 
6287 1 1.5 7 15.5 
6288 2 1.5 7.5 15 
6289 1 2 7 15 
6290 1 2 7.5 15.5 
6291 1 2.5 7 15.5 
6292 1 2.5 7.5 15 
6293 1 3 7 15 
6294 1 3 7.5 15.5 
6295 1 3.5 7 15.5 
6296 1 3.5 7.5 15 
6297 2 4 7 15 
6298 1 4 7.5 15.5 
6299 1 4.5 7 15.5 
6300 1 4.5 7.5 15 
6301 1 5 7 15 
6302 1 5 7.5 15.5 
6303 1 5.5 7 15.5 
6304 2 5.5 7.5 15 
6305 1 6 7 15 
6306 1 6 7.5 15.5 
6307 1 6.5 7 15.5 
6308 1 6.5 7.5 15 
6309 1 7 7 15 
6310 1 7 7.5 15.5 
6311 2 7.5 7 15.5 
6312 1 7.5 7.5 15 
6313 2 8 7 15 
6314 2 8 7.5 15.5 
6315 1 8.5 7 15.5 
6316 1 8.5 7.5 15 
6317 1 9 7 15 
6318 1 9 7.5 15.5 
6319 1 9.5 7 15.5 
6320 1 9.5 7.5 15 
6321 1 0 8 15 
6322 1 0 8.5 15.5 
6323 1 0.5 8 15.5 
6324 2 0.5 8.5 15 
6325 1 1 8 15 
6326 1 1 8.5 15.5 
6327 1 1.5 8 15.5 
6328 1 1.5 8.5 15 
6329 2 2 8 15 
6330 2 2 8.5 15.5 
6331 2 2.5 8 15.5 
6332 1 2.5 8.5 15 
6333 1 3 8 15 
6334 1 3 8.5 15.5 
6335 1 3.5 8 15.5 
6336 2 3.5 8.5 15 
6337 1 4 8 15 
6338 2 4 8.5 15.5 
6339 1 4.5 8 15.5 
6340 1 4.5 8.5 15 
6341 1 5 8 15 
6342 1 5 8.5 15.5 
6343 1 5.5 8 15.5 
6344 1 5.5 8.5 15 
6345 1 6 8 15 
6346 1 6 8.5 15.5 
6347 1 6.5 8 15.5 
6348 1 6.5 8.5 15 
6349 1 7 8 15 
6350 1 7 8.5 15.5 
6351 1 7.5 8 15.5 
6352 1 7.5 8.5 15 
6353 2 8 8 15 
6354 1 8 8.5 15.5 
6355 2 8.5 8 15.5 
6356 1 8.5 8.5 15 
6357 1 9 8 15 
6358 1 9 8.5 15.5 
6359 1 9.5 8 15.5 
6360 2 9.5 8.5 15 
6361 2 0 9 15 
6362 2 0 9.5 15.5 
6363 2 0.5 9 15.5 
6364 1 0.5 9.5 15 
6365 1 1 9 15 
6366 1 1 9.5 15.5 
6367 1 1.5 9 15.5 
6368 1 1.5 9.5 15 
6369 1 2 9 15 
6370 1 2 9.5 15.5 
6371 1 2.5 9 15.5 
6372 2 2.5 9.5 15 
6373 1 3 9 15 
6374 1 3 9.5 15.5 
6375 1 3.5 9 15.5 
6376 1 3.5 9.5 15 
6377 2 4 9 15 
6378 1 4 9.5 15.5 
6379 1 4.5 9 15.5 
6380 2 4.5 9.5 15 
6381 1 5 9 15 
6382 1 5 9.5 15.5 
6383 1 5.5 9 15.5 
6384 1 5.5 9.5 15 
6385 1 6 9 15 
6386 1 6 9.5 15.5 
6387 1 6.5 9 15.5 
6388 2 6.5 9.5 15 
6389 2 7 9 15 
6390 2 7 9.5 15.5 
6391 1 7.5 9 15.5 
6392 1 7.5 9.5 15 
6393 1 8 9 15 
6394 2 8 9.5 15.5 
6395 1 8.5 9 15.5 
6396 1 8.5 9.5 15 
6397 2 9 9 15 
6398 1 9 9.5 15.5 
6399 1 9.5 9 15.5 
6400 1 9.5 9.5 15 
6401 1 0 0 16 
6402 1 0 0.5 16.5 
6403 2 0.5 0 16.5 
6404 1 0.5 0.5 16 
6405 1 1 0 16 
6406 1 1 0.5 16.5 
6407 1 1.5 0 16.5 
6408 2 1.5 0.5 16 
6409 1 2 0 16 
6410 1 2 0.5 16.5 
6411 2 2.5 0 16.5 
6412 1 2.5 0.5 16 
6413 1 3 0 16 
6414 1 3 0.5 16.5 
6415 1 3.5 0 16.5 
6416 1 3.5 0.5 16 
6417 1 4 0 16 
6418 1 4 0.5 16.5 
6419 1 4.5 0 16.5 
6420 1 4.5 0.5 16 
6421 1 5 0 16 
6422 1 5 0.5 16.5 
6423 1 5.5 0 16.5 
6424 1 5.5 0.5 16 
6425 1 6 0 16 
6426 1 6 0.5 16.5 
6427 1 6.5 0 16.5 
6428 1 6.5 0.5 16 
6429 1 7 0 16 
6430 2 7 0.5 16.5 
6431 1 7.5 0 16.5 
6432 1 7.5 0.5 16 
6433 1 8 0 16 
6434 2 8 0.5 16.5 
6435 1 8.5 0 16.5 
6436 1 8.5 0.5 16 
6437 1 9 0 16 
6438 1 9 0.5 16.5 
6439 2 9.5 0 16.5 
6440 1 9.5 0.5 16 
6441 1 0 1 16 
6442 2 0 1.5 16.5 
6443 1 0.5 1 16.5 
6444 1 0.5 1.5 16 
6445 1 1 1 16 
6446 2 1 1.5 16.5 
6447 1 1.5 1 16.5 
6448 2 1.5 1.5 16 
6449 1 2 1 16 
6450 1 2 1.5 16.5 
6451 1 2.5 1 16.5 
6452 2 2.5 1.5 16 
6453 1 3 1 16 
6454 1 3 1.5 16.5 
6455 1 3.5 1 16.5 
6456 1 3.5 1.5 16 
6457 1 4 1 16 
6458 1 4 1.5 16.5 
6459 1 4.5 1 16.5 
6460 1 4.5 1.5 16 
6461 1 5 1 16 
6462 1 5 1.5 16.5 
6463 1 5.5 1 16.5 
6464 1 5.5 1.5 16 
6465 1 6 1 16 
6466 1 6 1.5 16.5 
6467 1 6.5 1 16.5 
6468 1 6.5 1.5 16 
6469 2 7 1 16 
6470 1 7 1.5 16.5 
6471 1 7.5 1 16.5 
6472 1 7.5 1.5 16 
6473 1 8 1 16 
6474 1 8 1.5 16.5 
6475 1 8.5 1 16.5 
6476 1 8.5 1.5 16 
6477 2 9 1 16 
6478 1 9 1.5 16.5 
6479 1 9.5 1 16.5 
6480 1 9.5 1.5 16 
6481 1 0 2 16 
6482 1 0 2.5 16.5 
6483 2 0.5 2 16.5 
6484 1 0.5 2.5 16 
6485 1 1 2 16 
6486 2 1 2.5 16.5 
6487 1 1.5 2 16.5 
6488 1 1.5 2.5 16 
6489 1 2 2 16 
6490 2 2 2.5 16.5 
6491 1 2.5 2 16.5 
6492 1 2.5 2.5 16 
6493 1 3 2 16 
6494 1 3 2.5 16.5 
6495 1 3.5 2 16.5 
6496 1 3.5 2.5 16 
6497 2 4 2 16 
6498 1 4 2.5 16.5 
6499 1 4.5 2 16.5 
6500 1 4.5 2.5 16 
6501 2 5 2 16 
6502 1 5 2.5 16.5 
6503 1 5.5 2 16.5 
6504 1 5.5 2.5 16 
6505 1 6 2 16 
6506 1 6 2.5 16.5 
6507 1 6.5 2 16.5 
6508 1 6.5 2.5 16 
6509 1 7 2 16 
6510 1 7 2.5 16.5 
6511 1 7.5 2 16.5 
6512 1 7.5 2.5 16 
6513 1 8 2 16 
6514 1 8 2.5 16.5 
6515 1 8.5 2 16.5 
6516 2 8.5 2.5 16 
6517 1 9 2 16 
6518 1 9 2.5 16.5 
6519 1 9.5 2 16.5 
6520 1 9.5 2.5 16 
6521 2 0 3 16 
6522 1 0 3.5 16.5 
6523 2 0.5 3 16.5 
6524 1 0.5 3.5 16 
6525 1 1 3 16 
6526 1 1 3.5 16.5 
6527 1 1.5 3 16.5 
6528 1 1.5 3.5 16 
6529 1 2 3 16 
6530 1 2 3.5 16.5 
6531 2 2.5 3 16.5 
6532 1 2.5 3.5 16 
6533 1 3 3 16 
6534 2 3 3.5 16.5 
6535 1 3.5 3 16.5 
6536 1 3.5 3.5 16 
6537 1 4 3 16 
6538 1 4 3.5 16.5 
6539 1 4.5 3 16.5 
6540 1 4.5 3.5 16 
6541 1 5 3 16 
6542 1 5 3.5 16.5 
6543 1 5.5 3 16.5 
6544 1 5.5 3.5 16 
6545 1 6 3 16 
6546 1 6 3.5 16.5 
6547 1 6.5 3 16.5 
6548 1 6.5 3.5 16 
6549 2 7 3 16 
6550 1 7 3.5 16.5 
6551 2 7.5 3 16.5 
6552 1 7.5 3.5 16 
6553 1 8 3 16 
6554 1 8 3.5 16.5 
6555 1 8.5 3 16.5 
6556 1 8.5 3.5 16 
6557 1 9 3 16 
6558 1 9 3.5 16.5 
6559 1 9.5 3 16.5 
6560 2 9.5 3.5 16 
6561 1 0 4 16 
6562 1 0 4.5 16.5 
6563 1 0.5 4 16.5 
6564 1 0.5 4.5 16 
6565 1 1 4 16 
6566 1 1 4.5 16.5 
6567 1 1.5 4 16.5 
6568 2 1.5 4.5 16 
6569 2 2 4 16 
6570 1 2 4.5 16.5 
6571 1 2.5 4 16.5 
6572 1 2.5 4.5 16 
6573 1 3 4 16 
6574 1 3 4.5 16.5 
6575 1 3.5 4 16.5 
6576 1 3.5 4.5 16 
6577 1 4 4 16 
6578 1 4 4.5 16.5 
6579 1 4.5 4 16.5 
6580 1 4.5 4.5 16 
6581 1 5 4 16 
6582 1 5 4.5 16.5 
6583 2 5.5 4 16.5 
6584 1 5.5 4.5 16 
6585 1 6 4 16 
6586 1 6 4.5 16.5 
6587 2 6.5 4 16.5 
6588 2 6.5 4.5 16 
6589 1 7 4 16 
6590 1 7 4.5 16.5 
6591 1 7.5 4 16.5 
6592 2 7.5 4.5 16 
6593 1 8 4 16 
6594 1 8 4.5 16.5 
6595 1 8.5 4 16.5 
6596 1 8.5 4.5 16 
6597 1 9 4 16 
6598 1 9 4.5 16.5 
6599 1 9.5 4 16.5 
6600 2 9.5 4.5 16 
6601 1 0 5 16 
6602 2 0 5.5 16.5 
6603 1 0.5 5 16.5 
6604 2 0.5 5.5 16 
6605 1 1 5 16 
6606 1 1 5.5 16.5 
6607 1 1.5 5 16.5 
6608 1 1.5 5.5 16 
6609 1 2 5 16 
6610 1 2 5.5 16.5 
6611 1 2.5 5 16.5 
6612 1 2.5 5.5 16 
6613 1 3 5 16 
6614 1 3 5.5 16.5 
6615 1 3.5 5 16.5 
6616 1 3.5 5.5 16 
6617 2 4 5 16 
6618 1 4 5.5 16.5 
6619 1 4.5 5 16.5 
6620 1 4.5 5.5 16 
6621 1 5 5 16 
6622 2 5 5.5 16.5 
6623 1 5.5 5 16.5 
6624 1 5.5 5.5 16 
6625 1 6 5 16 
6626 1 6 5.5 16.5 
6627 2 6.5 5 16.5 
6628 1 6.5 5.5 16 
6629 2 7 5 16 
6630 1 7 5.5 16.5 
6631 1 7.5 5 16.5 
6632 1 7.5 5.5 16 
6633 1 8 5 16 
6634 2 8 5.5 16.5 
6635 2 8.5 5 16.5 
6636 1 8.5 5.5 16 
6637 1 9 5 16 
6638 1 9 5.5 16.5 
6639 1 9.5 5 16.5 
6640 1 9.5 5.5 16 
6641 1 0 6 16 
6642 1 0 6.5 16.5 
6643 1 0.5 6 16.5 
6644 1 0.5 6.5 16 
6645 1 1 6 16 
6646 1 1 6.5 16.5 
6647 1 1.5 6 16.5 
6648 1 1.5 6.5 16 
6649 1 2 6 16 
6650 1 2 6.5 16.5 
6651 1 2.5 6 16.5 
6652 2 2.5 6.5 16 
6653 1 3 6 16 
6654 2 3 6.5 16.5 
6655 1 3.5 6 16.5 
6656 1 3.5 6.5 16 
6657 1 4 6 16 
6658 1 4 6.5 16.5 
6659 1 4.5 6 16.5 
6660 1 4.5 6.5 16 
6661 2 5 6 16 
6662 1 5 6.5 16.5 
6663 1 5.5 6 16.5 
6664 1 5.5 6.5 16 
6665 1 6 6 16 
6666 1 6 6.5 16.5 
6667 2 6.5 6 16.5 
6668 2 6.5 6.5 16 
6669 1 7 6 16 
6670 1 7 6.5 16.5 
6671 1 7.5 6 16.5 
6672 2 7.5 6.5 16 
6673 2 8 6 16 
6674 1 8 6.5 16.5 
6675 1 8.5 6 16.5 
6676 1 8.5 6.5 16 
6677 1 9 6 16 
6678 1 9 6.5 16.5 
6679 1 9.5 6 16.5 
6680 1 9.5 6.5 16 
6681 1 0 7 16 
6682 1 0 7.5 16.5 
6683 1 0.5 7 16.5 
6684 1 0.5 7.5 16 
6685 1 1 7 16 
6686 1 1 7.5 16.5 
6687 1 1.5 7 16.5 
6688 1 1.5 7.5 16 
6689 1 2 7 16 
6690 1 2 7.5 16.5 
6691 1 2.5 7 16.5 
6692 2 2.5 7.5 16 
6693 2 3 7 16 
6694 1 3 7.5 16.5 
6695 1 3.5 7 16.5 
6696 1 3.5 7.5 16 
6697 1 4 7 16 
6698 2 4 7.5 16.5 
6699 1 4.5 7 16.5 
6700 1 4.5 7.5 16 
6701 2 5 7 16 
6702 1 5 7.5 16.5 
6703 1 5.5 7 16.5 
6704 1 5.5 7.5 16 
6705 2 6 7 16 
6706 1 6 7.5 16.5 
6707 1 6.5 7 16.5 
6708 1 6.5 7.5 16 
6709 1 7 7 16 
6710 1 7 7.5 16.5 
6711 1 7.5 7 16.5 
6712 2 7.5 7.5 16 
6713 1 8 7 16 
6714 1 8 7.5 16.5 
6715 1 8.5 7 16.5 
6716 1 8.5 7.5 16 
6717 1 9 7 16 
6718 1 9 7.5 16.5 
6719 1 9.5 7 16.5 
6720 1 9.5 7.5 16 
6721 2 0 8 16 
6722 1 0 8.5 16.5 
6723 1 0.5 8 16.5 
6724 1 0.5 8.5 16 
6725 2 1 8 16 
6726 1 1 8.5 16.5 
6727 2 1.5 8 16.5 
6728 1 1.5 8.5 16 
6729 1 2 8 16 
6730 1 2 8.5 16.5 
6731 2 2.5 8 16.5 
6732 1 2.5 8.5 16 
6733 2 3 8 16 
6734 2 3 8.5 16.5 
6735 2 3.5 8 16.5 
6736 1 3.5 8.5 16 
6737 1 4 8 16 
6738 1 4 8.5 16.5 
6739 1 4.5 8 16.5 
6740 2 4.5 8.5 16 
6741 1 5 8 16 
6742 1 5 8.5 16.5 
6743 1 5.5 8 16.5 
6744 2 5.5 8.5 16 
6745 1 6 8 16 
6746 1 6 8.5 16.5 
6747 1 6.5 8 16.5 
6748 1 6.5 8.5 16 
6749 1 7 8 16 
6750 1 7 8.5 16.5 
6751 1 7.5 8 16.5 
6752 1 7.5 8.5 16 
6753 1 8 8 16 
6754 1 8 8.5 16.5 
6755 2 8.5 8 16.5 
6756 1 8.5 8.5 16 
6757 1 9 8 16 
6758 1 9 8.5 16.5 
6759 2 9.5 8 16.5 
6760 1 9.5 8.5 16 
6761 1 0 9 16 
6762 1 0 9.5 16.5 
6763 1 0.5 9 16.5 
6764 1 0.5 9.5 16 
6765 1 1 9 16 
6766 1 1 9.5 16.5 
6767 1 1.5 9 16.5 
6768 1 1.5 9.5 16 
6769 1 2 9 16 
6770 1 2 9.5 16.5 
6771 1 2.5 9 16.5 
6772 2 2.5 9.5 16 
6773 1 3 9 16 
6774 1 3 9.5 16.5 
6775 1 3.5 9 16.5 
6776 1 3.5 9.5 16 
6777 1 4 9 16 
6778 2 4 9.5 16.5 
6779 1 4.5 9 16.5 
6780 1 4.5 9.5 16 
6781 1 5 9 16 
6782 2 5 9.5 16.5 
6783 1 5.5 9 16.5 
6784 1 5.5 9.5 16 
6785 1 6 9 16 
6786 1 6 9.5 16.5 
6787 1 6.5 9 16.5 
6788 2 6.5 9.5 16 
6789 1 7 9 16 
6790 2 7 9.5 16.5 
6791 1 7.5 9 16.5 
6792 1 7.5 9.5 16 
6793 1 8 9 16 
6794 1 8 9.5 16.5 
6795 1 8.5 9 16.5 
6796 2 8.5 9.5 16 
6797 1 9 9 16 
6798 1 9 9.5 16.5 
6799 1 9.5 9 16.5 
6800 1 9.5 9.5 16 
6801 2 0 0 17 
6802 1 0 0.5 17.5 
6803 1 0.5 0 17.5 
6804 1 0.5 0.5 17 
6805 2 1 0 17 
6806 1 1 0.5 17.5 
6807 1 1.5 0 17.5 
6808 1 1.5 0.5 17 
6809 1 2 0 17 
6810 1 2 0.5 17.5 
6811 1 2.5 0 17.5 
6812 1 2.5 0.5 17 
6813 1 3 0 17 
6814 2 3 0.5 17.5 
6815 1 3.5 0 17.5 
6816 1 3.5 0.5 17 
6817 1 4 0 17 
6818 1 4 0.5 17.5 
6819 1 4.5 0 17.5 
6820 1 4.5 0.5 17 
6821 1 5 0 17 
6822 1 5 0.5 17.5 
6823 1 5.5 0 17.5 
6824 2 5.5 0.5 17 
6825 1 6 0 17 
6826 1 6 0.5 17.5 
6827 1 6.5 0 17.5 
6828 1 6.5 0.5 17 
6829 1 7 0 17 
6830 1 7 0.5 17.5 
6831 1 7.5 0 17.5 
6832 1 7.5 0.5 17 
6833 1 8 0 17 
6834 1 8 0.5 17.5 
6835 2 8.5 0 17.5 
6836 1 8.5 0.5 17 
6837 1 9 0 17 
6838 1 9 0.5 17.5 
6839 1 9.5 0 17.5 
6840 1 9.5 0.5 17 
6841 1 0 1 17 
6842 1 0 1.5 17.5 
6843 1 0.5 1 17.5 
6844 1 0.5 1.5 17 
6845 1 1 1 17 
6846 1 1 1.5 17.5 
6847 1 1.5 1 17.5 
6848 2 1.5 1.5 17 
6849 1 2 1 17 
6850 2 2 1.5 17.5 
6851 1 2.5 1 17.5 
6852 1 2.5 1.5 17 
6853 2 3 1 17 
6854 1 3 1.5 17.5 
6855 1 3.5 1 17.5 
6856 1 3.5 1.5 17 
6857 1 4 1 17 
6858 1 4 1.5 17.5 
6859 1 4.5 1 17.5 
6860 2 4.5 1.5 17 
6861 2 5 1 17 
6862 1 5 1.5 17.5 
6863 2 5.5 1 17.5 
6864 1 5.5 1.5 17 
6865 1 6 1 17 
6866 1 6 1.5 17.5 
6867 1 6.5 1 17.5 
6868 2 6.5 1.5 17 
6869 1 7 1 17 
6870 1 7 1.5 17.5 
6871 1 7.5 1 17.5 
6872 1 7.5 1.5 17 
6873 1 8 1 17 
6874 2 8 1.5 17.5 
6875 2 8.5 1 17.5 
6876 1 8.5 1.5 17 
6877 1 9 1 17 
6878 1 9 1.5 17.5 
6879 1 9.5 1 17.5 
6880 1 9.5 1.5 17 
6881 1 0 2 17 
6882 1 0 2.5 17.5 
6883 1 0.5 2 17.5 
6884 1 0.5 2.5 17 
6885 1 1 2 17 
6886 1 1 2.5 17.5 
6887 1 1.5 2 17.5 
6888 1 1.5 2.5 17 
6889 1 2 2 17 
6890 1 2 2.5 17.5 
6891 1 2.5 2 17.5 
6892 1 2.5 2.5 17 
6893 2 3 2 17 
6894 1 3 2.5 17.5 
6895 1 3.5 2 17.5 
6896 1 3.5 2.5 17 
6897 1 4 2 17 
6898 1 4 2.5 17.5 
6899 1 4.5 2 17.5 
6900 1 4.5 2.5 17 
6901 1 5 2 17 
6902 1 5 2.5 17.5 
6903 1 5.5 2 17.5 
6904 1 5.5 2.5 17 
6905 2 6 2 17 
6906 1 6 2.5 17.5 
6907 1 6.5 2 17.5 
6908 1 6.5 2.5 17 
6909 1 7 2 17 
6910 1 7 2.5 17.5 
6911 1 7.5 2 17.5 
6912 1 7.5 2.5 17 
6913 1 8 2 17 
6914 1 8 2.5 17.5 
6915 1 8.5 2 17.5 
6916 1 8.5 2.5 17 
6917 1 9 2 17 
6918 1 9 2.5 17.5 
6919 1 9.5 2 17.5 
6920 1 9.5 2.5 17 
6921 2 0 3 17 
6922 1 0 3.5 17.5 
6923 1 0.5 3 17.5 
6924 1 0.5 3.5 17 
6925 1 1 3 17 
6926 1 1 3.5 17.5 
6927 1 1.5 3 17.5 
6928 1 1.5 3.5 17 
6929 1 2 3 17 
6930 1 2 3.5 17.5 
6931 1 2.5 3 17.5 
6932 1 2.5 3.5 17 
6933 1 3 3 17 
6934 1 3 3.5 17.5 
6935 1 3.5 3 17.5 
6936 2 3.5 3.5 17 
6937 1 4 3 17 
6938 1 4 3.5 17.5 
6939 1 4.5 3 17.5 
6940 1 4.5 3.5 17 
6941 2 5 3 17 
6942 1 5 3.5 17.5 
6943 1 5.5 3 17.5 
6944 1 5.5 3.5 17 
6945 1 6 3 17 
6946 1 6 3.5 17.5 
6947 1 6.5 3 17.5 
6948 1 6.5 3.5 17 
6949 1 7 3 17 
6950 1 7 3.5 17.5 
6951 2 7.5 3 17.5 
6952 1 7.5 3.5 17 
6953 1 8 3 17 
6954 1 8 3.5 17.5 
6955 1 8.5 3 17.5 
6956 1 8.5 3.5 17 
6957 2 9 3 17 
6958 1 9 3.5 17.5 
6959 1 9.5 3 17.5 
6960 1 9.5 3.5 17 
6961 1 0 4 17 
6962 1 0 4.5 17.5 
6963 2 0.5 4 17.5 
6964 1 0.5 4.5 17 
6965 1 1 4 17 
6966 2 1 4.5 17.5 
6967 1 1.5 4 17.5 
6968 1 1.5 4.5 17 
6969 1 2 4 17 
6970 1 2 4.5 17.5 
6971 1 2.5 4 17.5 
6972 1 2.5 4.5 17 
6973 1 3 4 17 
6974 1 3 4.5 17.5 
6975 1 3.5 4 17.5 
6976 1 3.5 4.5 17 
6977 2 4 4 17 
6978 1 4 4.5 17.5 
6979 1 4.5 4 17.5 
6980 1 4.5 4.5 17 
6981 1 5 4 17 
6982 1 5 4.5 17.5 
6983 1 5.5 4 17.5 
6984 1 5.5 4.5 17 
6985 1 6 4 17 
6986 1 6 4.5 17.5 
6987 1 6.5 4 17.5 
6988 1 6.5 4.5 17 
6989 1 7 4 17 
6990 1 7 4.5 17.5 
6991 1 7.5 4 17.5 
6992 1 7.5 4.5 17 
6993 1 8 4 17 
6994 1 8 4.5 17.5 
6995 1 8.5 4 17.5 
6996 1 8.5 4.5 17 
6997 1 9 4 17 
6998 1 9 4.5 17.5 
6999 1 9.5 4 17.5 
7000 1 9.5 4.5 17 
7001 1 0 5 17 
7002 1 0 5.5 17.5 
7003 1 0.5 5 17.5 
7004 1 0.5 5.5 17 
7005 2 1 5 17 
7006 1 1 5.5 17.5 
7007 1 1.5 5 17.5 
7008 1 1.5 5.5 17 
7009 1 2 5 17 
7010 1 2 5.5 17.5 
7011 1 2.5 5 17.5 
7012 1 2.5 5.5 17 
7013 2 3 5 17 
7014 1 3 5.5 17.5 
7015 1 3.5 5 17.5 
7016 2 3.5 5.5 17 
7017 1 4 5 17 
7018 1 4 5.5 17.5 
7019 1 4.5 5 17.5 
7020 1 4.5 5.5 17 
7021 1 5 5 17 
7022 1 5 5.5 17.5 
7023 1 5.5 5 17.5 
7024 1 5.5 5.5 17 
7025 1 6 5 17 
7026 1 6 5.5 17.5 
7027 1 6.5 5 17.5 
7028 1 6.5 5.5 17 
7029 1 7 5 17 
7030 1 7 5.5 17.5 
7031 1 7.5 5 17.5 
7032 1 7.5 5.5 17 
7033 1 8 5 17 
7034 1 8 5.5 17.5 
7035 1 8.5 5 17.5 
7036 1 8.5 5.5 17 
7037 1 9 5 17 
7038 1 9 5.5 17.5 
7039 1 9.5 5 17.5 
7040 1 9.5 5.5 17 
7041 1 0 6 17 
7042 1 0 6.5 17.5 
7043 2 0.5 6 17.5 
7044 1 0.5 6.5 17 
7045 2 1 6 17 
7046 1 1 6.5 17.5 
7047 1 1.5 6 17.5 
7048 1 1.5 6.5 17 
7049 1 2 6 17 
7050 1 2 6.5 17.5 
7051 1 2.5 6 17.5 
7052 1 2.5 6.5 17 
7053 1 3 6 17 
7054 2 3 6.5 17.5 
7055 2 3.5 6 17.5 
7056 1 3.5 6.5 17 
7057 1 4 6 17 
7058 2 4 6.5 17.5 
7059 1 4.5 6 17.5 
7060 2 4.5 6.5 17 
7061 1 5 6 17 
7062 2 5 6.5 17.5 
7063 2 5.5 6 17.5 
7064 1 5.5 6.5 17 
7065 1 6 6 17 
7066 1 6 6.5 17.5 
7067 1 6.5 6 17.5 
7068 2 6.5 6.5 17 
7069 1 7 6 17 
7070 1 7 6.5 17.5 
7071 1 7.5 6 17.5 
7072 1 7.5 6.5 17 
7073 1 8 6 17 
7074 1 8 6.5 17.5 
7075 1 8.5 6 17.5 
7076 1 8.5 6.5 17 
7077 1 9 6 17 
7078 1 9 6.5 17.5 
7079 1 9.5 6 17.5 
7080 1 9.5 6.5 17 
7081 1 0 7 17 
7082 1 0 7.5 17.5 
7083 1 0.5 7 17.5 
7084 1 0.5 7.5 17 
7085 1 1 7 17 
7086 1 1 7.5 17.5 
7087 1 1.5 7 17.5 
7088 1 1.5 7.5 17 
7089 1 2 7 17 
7090 1 2 7.5 17.5 
7091 1 2.5 7 17.5 
7092 2 2.5 7.5 17 
7093 1 3 7 17 
7094 1 3 7.5 17.5 
7095 1 3.5 7 17.5 
7096 1 3.5 7.5 17 
7097 1 4 7 17 
7098 1 4 7.5 17.5 
7099 1 4.5 7 17.5 
7100 1 4.5 7.5 17 
7101 1 5 7 17 
7102 1 5 7.5 17.5 
7103 1 5.5 7 17.5 
7104 1 5.5 7.5 17 
7105 1 6 7 17 
7106 1 6 7.5 17.5 
7107 1 6.5 7 17.5 
7108 1 6.5 7.5 17 
7109 1 7 7 17 
7110 1 7 7.5 17.5 
7111 1 7.5 7 17.5 
7112 2 7.5 7.5 17 
7113 1 8 7 17 
7114 1 8 7.5 17.5 
7115 1 8.5 7 17.5 
7116 2 8.5 7.5 17 
7117 1 9 7 17 
7118 1 9 7.5 17.5 
7119 1 9.5 7 17.5 
7120 1 9.5 7.5 17 
7121 1 0 8 17 
7122 1 0 8.5 17.5 
7123 1 0.5 8 17.5 
7124 1 0.5 8.5 17 
7125 2 1 8 17 
7126 1 1 8.5 17.5 
7127 1 1.5 8 17.5 
7128 1 1.5 8.5 17 
7129 1 2 8 17 
7130 1 2 8.5 17.5 
7131 1 2.5 8 17.5 
7132 1 2.5 8.5 17 
7133 1 3 8 17 
7134 2 3 8.5 17.5 
7135 1 3.5 8 17.5 
7136 2 3.5 8.5 17 
7137 1 4 8 17 
7138 1 4 8.5 17.5 
7139 1 4.5 8 17.5 
7140 1 4.5 8.5 17 
7141 1 5 8 17 
7142 1 5 8.5 17.5 
7143 1 5.5 8 17.5 
7144 1 5.5 8.5 17 
7145 1 6 8 17 
7146 1 6 8.5 17.5 
7147 1 6.5 8 17.5 
7148 2 6.5 8.5 17 
7149 1 7 8 17 
7150 1 7 8.5 17.5 
7151 1 7.5 8 17.5 
7152 1 7.5 8.5 17 
7153 1 8 8 17 
7154 1 8 8.5 17.5 
7155 1 8.5 8 17.5 
7156 2 8.5 8.5 17 
7157 2 9 8 17 
7158 1 9 8.5 17.5 
7159 1 9.5 8 17.5 
7160 1 9.5 8.5 17 
7161 2 0 9 17 
7162 1 0 9.5 17.5 
7163 1 0.5 9 17.5 
7164 1 0.5 9.5 17 
7165 1 1 9 17 
7166 1 1 9.5 17.5 
7167 1 1.5 9 17.5 
7168 1 1.5 9.5 17 
7169 1 2 9 17 
7170 1 2 9.5 17.5 
7171 1 2.5 9 17.5 
7172 1 2.5 9.5 17 
7173 1 3 9 17 
7174 1 3 9.5 17.5 
7175 1 3.5 9 17.5 
7176 1 3.5 9.5 17 
7177 1 4 9 17 
7178 1 4 9.5 17.5 
7179 1 4.5 9 17.5 
7180 1 4.5 9.5 17 
7181 1 5 9 17 
7182 1 5 9.5 17.5 
7183 1 5.5 9 17.5 
7184 1 5.5 9.5 17 
7185 1 6 9 17 
7186 1 6 9.5 17.5 
7187 1 6.5 9 17.5 
7188 1 6.5 9.5 17 
7189 2 7 9 17 
7190 2 7 9.5 17.5 
7191 1 7.5 9 17.5 
7192 1 7.5 9.5 17 
7193 1 8 9 17 
7194 1 8 9.5 17.5 
7195 1 8.5 9 17.5 
7196 1 8.5 9.5 17 
7197 1 9 9 17 
7198 1 9 9.5 17.5 
7199 1 9.5 9 17.5 
7200 1 9.5 9.5 17 
7201 1 0 0 18 
7202 1 0 0.5 18.5 
7203 1 0.5 0 18.5 
7204 1 0.5 0.5 18 
7205 1 1 0 18 
7206 1 1 0.5 18.5 
7207 2 1.5 0 18.5 
7208 1 1.5 0.5 18 
7209 1 2 0 18 
7210 1 2 0.5 18.5 
7211 1 2.5 0 18.5 
7212 1 2.5 0.5 18 
7213 1 3 0 18 
7214 2 3 0.5 18.5 
7215 1 3.5 0 18.5 
7216 1 3.5 0.5 18 
7217 1 4 0 18 
7218 1 4 0.5 18.5 
7219 1 4.5 0 18.5 
7220 2 4.5 0.5 18 
7221 2 5 0 18 
7222 1 5 0.5 18.5 
7223 1 5.5 0 18.5 
7224 1 5.5 0.5 18 
7225 1 6 0 18 
7226 1 6 0.5 18.5 
7227 1 6.5 0 18.5 
7228 1 6.5 0.5 18 
7229 1 7 0 18 
7230 1 7 0.5 18.5 
7231 1 7.5 0 18.5 
7232 2 7.5 0.5 18 
7233 2 8 0 18 
7234 1 8 0.5 18.5 
7235 1 8.5 0 18.5 
7236 2 8.5 0.5 18 
7237 1 9 0 18 
7238 1 9 0.5 18.5 
7239 1 9.5 0 18.5 
7240 1 9.5 0.5 18 
7241 1 0 1 18 
7242 1 0 1.5 18.5 
7243 1 0.5 1 18.5 
7244 1 0.5 1.5 18 
7245 1 1 1 18 
7246 2 1 1.5 18.5 
7247 1 1.5 1 18.5 
7248 1 1.5 1.5 18 
7249 1 2 1 18 
7250 1 2 1.5 18.5 
7251 1 2.5 1 18.5 
7252 1 2.5 1.5 18 
7253 1 3 1 18 
7254 1 3 1.5 18.5 
7255 1 3.5 1 18.5 
7256 2 3.5 1.5 18 
7257 1 4 1 18 
7258 1 4 1.5 18.5 
7259 1 4.5 1 18.5 
7260 1 4.5 1.5 18 
7261 1 5 1 18 
7262 1 5 1.5 18.5 
7263 1 5.5 1 18.5 
7264 1 5.5 1.5 18 
7265 1 6 1 18 
7266 2 6 1.5 18.5 
7267 1 6.5 1 18.5 
7268 1 6.5 1.5 18 
7269 1 7 1 18 
7270 1 7 1.5 18.5 
7271 1 7.5 1 18.5 
7272 1 7.5 1.5 18 
7273 2 8 1 18 
7274 1 8 1.5 18.5 
7275 1 8.5 1 18.5 
7276 1 8.5 1.5 18 
7277 1 9 1 18 
7278 1 9 1.5 18.5 
7279 1 9.5 1 18.5 
7280 1 9.5 1.5 18 
7281 1 0 2 18 
7282 1 0 2.5 18.5 
7283 1 0.5 2 18.5 
7284 1 0.5 2.5 18 
7285 1 1 2 18 
7286 1 1 2.5 18.5 
7287 1 1.5 2 18.5 
7288 1 1.5 2.5 18 
7289 1 2 2 18 
7290 1 2 2.5 18.5 
7291 1 2.5 2 18.5 
7292 1 2.5 2.5 18 
7293 1 3 2 18 
7294 1 3 2.5 18.5 
7295 1 3.5 2 18.5 
7296 1 3.5 2.5 18 
7297 1 4 2 18 
7298 1 4 2.5 18.5 
7299 1 4.5 2 18.5 
7300 1 4.5 2.5 18 
7301 1 5 2 18 
7302 1 5 2.5 18.5 
7303 1 5.5 2 18.5 
7304 1 5.5 2.5 18 
7305 1 6 2 18 
7306 1 6 2.5 18.5 
7307 1 6.5 2 18.5 
7308 1 6.5 2.5 18 
7309 1 7 2 18 
7310 1 7 2.5 18.5 
7311 1 7.5 2 18.5 
7312 1 7.5 2.5 18 
7313 1 8 2 18 
7314 1 8 2.5 18.5 
7315 1 8.5 2 18.5 
7316 1 8.5 2.5 18 
7317 1 9 2 18 
7318 1 9 2.5 18.5 
7319 1 9.5 2 18.5 
7320 1 9.5 2.5 18 
7321 1 0 3 18 
7322 1 0 3.5 18.5 
7323 1 0.5 3 18.5 
7324 1 0.5 3.5 18 
7325 1 1 3 18 
7326 1 1 3.5 18.5 
7327 2 1.5 3 18.5 
7328 1 1.5 3.5 18 
7329 1 2 3 18 
7330 1 2 3.5 18.5 
7331 1 2.5 3 18.5 
7332 1 2.5 3.5 18 
7333 1 3 3 18 
7334 1 3 3.5 18.5 
7335 1 3.5 3 18.5 
7336 1 3.5 3.5 18 
7337 1 4 3 18 
7338 1 4 3.5 18.5 
7339 1 4.5 3 18.5 
7340 1 4.5 3.5 18 
7341 1 5 3 18 
7342 1 5 3.5 18.5 
7343 1 5.5 3 18.5 
7344 2 5.5 3.5 18 
7345 1 6 3 18 
7346 1 6 3.5 18.5 
7347 1 6.5 3 18.5 
7348 1 6.5 3.5 18 
7349 1 7 3 18 
7350 1 7 3.5 18.5 
7351 1 7.5 3 18.5 
7352 2 7.5 3.5 18 
7353 1 8 3 18 
7354 1 8 3.5 18.5 
7355 1 8.5 3 18.5 
7356 1 8.5 3.5 18 
7357 1 9 3 18 
7358 1 9 3.5 18.5 
7359 1 9.5 3 18.5 
7360 1 9.5 3.5 18 
7361 1 0 4 18 
7362 1 0 4.5 18.5 
7363 1 0.5 4 18.5 
7364 1 0.5 4.5 18 
7365 1 1 4 18 
7366 1 1 4.5 18.5 
7367 1 1.5 4 18.5 
7368 1 1.5 4.5 18 
7369 1 2 4 18 
7370 1 2 4.5 18.5 
7371 1 2.5 4 18.5 
7372 1 2.5 4.5 18 
7373 1 3 4 18 
7374 1 3 4.5 18.5 
7375 1 3.5 4 18.5 
7376 1 3.5 4.5 18 
7377 1 4 4 18 
7378 1 4 4.5 18.5 
7379 1 4.5 4 18.5 
7380 1 4.5 4.5 18 
7381 1 5 4 18 
7382 2 5 4.5 18.5 
7383 2 5.5 4 18.5 
7384 1 5.5 4.5 18 
7385 1 6 4 18 
7386 2 6 4.5 18.5 
7387 1 6.5 4 18.5 
7388 1 6.5 4.5 18 
7389 1 7 4 18 
7390 1 7 4.5 18.5 
7391 1 7.5 4 18.5 
7392 1 7.5 4.5 18 
7393 2 8 4 18 
7394 1 8 4.5 18.5 
7395 1 8.5 4 18.5 
7396 1 8.5 4.5 18 
7397 1 9 4 18 
7398 1 9 4.5 18.5 
7399 1 9.5 4 18.5 
7400 1 9.5 4.5 18 
7401 1 0 5 18 
7402 1 0 5.5 18.5 
7403 1 0.5 5 18.5 
7404 1 0.5 5.5 18 
7405 1 1 5 18 
7406 1 1 5.5 18.5 
7407 1 1.5 5 18.5 
7408 1 1.5 5.5 18 
7409 1 2 5 18 
7410 1 2 5.5 18.5 
7411 1 2.5 5 18.5 
7412 1 2.5 5.5 18 
7413 1 3 5 18 
7414 1 3 5.5 18.5 
7415 1 3.5 5 18.5 
7416 1 3.5 5.5 18 
7417 1 4 5 18 
7418 2 4 5.5 18.5 
7419 1 4.5 5 18.5 
7420 1 4.5 5.5 18 
7421 1 5 5 18 
7422 1 5 5.5 18.5 
7423 1 5.5 5 18.5 
7424 1 5.5 5.5 18 
7425 1 6 5 18 
7426 1 6 5.5 18.5 
7427 1 6.5 5 18.5 
7428 1 6.5 5.5 18 
7429 1 7 5 18 
7430 2 7 5.5 18.5 
7431 1 7.5 5 18.5 
7432 1 7.5 5.5 18 
7433 1 8 5 18 
7434 1 8 5.5 18.5 
7435 1 8.5 5 18.5 
7436 1 8.5 5.5 18 
7437 2 9 5 18 
7438 1 9 5.5 18.5 
7439 1 9.5 5 18.5 
7440 1 9.5 5.5 18 
7441 1 0 6 18 
7442 2 0 6.5 18.5 
7443 1 0.5 6 18.5 
7444 1 0.5 6.5 18 
7445 1 1 6 18 
7446 1 1 6.5 18.5 
7447 1 1.5 6 18.5 
7448 2 1.5 6.5 18 
7449 1 2 6 18 
7450 1 2 6.5 18.5 
7451 1 2.5 6 18.5 
7452 2 2.5 6.5 18 
7453 1 3 6 18 
7454 2 3 6.5 18.5 
7455 1 3.5 6 18.5 
7456 1 3.5 6.5 18 
7457 1 4 6 18 
7458 1 4 6.5 18.5 
7459 1 4.5 6 18.5 
7460 1 4.5 6.5 18 
7461 1 5 6 18 
7462 1 5 6.5 18.5 
7463 1 5.5 6 18.5 
7464 1 5.5 6.5 18 
7465 1 6 6 18 
7466 1 6 6.5 18.5 
7467 1 6.5 6 18.5 
7468 1 6.5 6.5 18 
7469 1 7 6 18 
7470 1 7 6.5 18.5 
7471 1 7.5 6 18.5 
7472 1 7.5 6.5 18 
7473 1 8 6 18 
7474 1 8 6.5 18.5 
7475 1 8.5 6 18.5 
7476 1 8.5 6.5 18 
7477 1 9 6 18 
7478 1 9 6.5 18.5 
7479 1 9.5 6 18.5 
7480 1 9.5 6.5 18 
7481 1 0 7 18 
7482 1 0 7.5 18.5 
7483 1 0.5 7 18.5 
7484 1 0.5 7.5 18 
7485 2 1 7 18 
7486 1 1 7.5 18.5 
7487 1 1.5 7 18.5 
7488 1 1.5 7.5 18 
7489 1 2 7 18 
7490 1 2 7.5 18.5 
7491 1 2.5 7 18.5 
7492 1 2.5 7.5 18 
7493 1 3 7 18 
7494 1 3 7.5 18.5 
7495 1 3.5 7 18.5 
7496 1 3.5 7.5 18 
7497 1 4 7 18 
7498 2 4 7.5 18.5 
7499 1 4.5 7 18.5 
7500 1 4.5 7.5 18 
7501 1 5 7 18 
7502 1 5 7.5 18.5 
7503 1 5.5 7 18.5 
7504 1 5.5 7.5 18 
7505 1 6 7 18 
7506 1 6 7.5 18.5 
7507 1 6.5 7 18.5 
7508 1 6.5 7.5 18 
7509 1 7 7 18 
7510 1 7 7.5 18.5 
7511 1 7.5 7 18.5 
7512 1 7.5 7.5 18 
7513 1 8 7 18 
7514 1 8 7.5 18.5 
7515 1 8.5 7 18.5 
7516 1 8.5 7.5 18 
7517 1 9 7 18 
7518 1 9 7.5 18.5 
7519 1 9.5 7 18.5 
7520 1 9.5 7.5 18 
7521 2 0 8 18 
7522 2 0 8.5 18.5 
7523 1 0.5 8 18.5 
7524 1 0.5 8.5 18 
7525 1 1 8 18 
7526 1 1 8.5 18.5 
7527 2 1.5 8 18.5 
7528 1 1.5 8.5 18 
7529 1 2 8 18 
7530 1 2 8.5 18.5 
7531 1 2.5 8 18.5 
7532 1 2.5 8.5 18 
7533 1 3 8 18 
7534 1 3 8.5 18.5 
7535 1 3.5 8 18.5 
7536 1 3.5 8.5 18 
7537 1 4 8 18 
7538 1 4 8.5 18.5 
7539 1 4.5 8 18.5 
7540 2 4.5 8.5 18 
7541 1 5 8 18 
7542 1 5 8.5 18.5 
7543 1 5.5 8 18.5 
7544 1 5.5 8.5 18 
7545 1 6 8 18 
7546 1 6 8.5 18.5 
7547 1 6.5 8 18.5 
7548 1 6.5 8.5 18 
7549 1 7 8 18 
7550 1 7 8.5 18.5 
7551 1 7.5 8 18.5 
7552 2 7.5 8.5 18 
7553 1 8 8 18 
7554 1 8 8.5 18.5 
7555 1 8.5 8 18.5 
7556 1 8.5 8.5 18 
7557 1 9 8 18 
7558 2 9 8.5 18.5 
7559 1 9.5 8 18.5 
7560 1 9.5 8.5 18 
7561 1 0 9 18 
7562 1 0 9.5 18.5 
7563 1 0.5 9 18.5 
7564 1 0.5 9.5 18 
7565 1 1 9 18 
7566 1 1 9.5 18.5 
7567 2 1.5 9 18.5 
7568 1 1.5 9.5 18 
7569 1 2 9 18 
7570 1 2 9.5 18.5 
7571 1 2.5 9 18.5 
7572 1 2.5 9.5 18 
7573 1 3 9 18 
7574 1 3 9.5 18.5 
7575 1 3.5 9 18.5 
7576 1 3.5 9.5 18 
7577 1 4 9 18 
7578 1 4 9.5 18.5 
7579 1 4.5 9 18.5 
7580 1 4.5 9.5 18 
7581 1 5 9 18 
7582 1 5 9.5 18.5 
7583 1 5.5 9 18.5 
7584 1 5.5 9.5 18 
7585 1 6 9 18 
7586 1 6 9.5 18.5 
7587 1 6.5 9 18.5 
7588 1 6.5 9.5 18 
7589 1 7 9 18 
7590 1 7 9.5 18.5 
7591 1 7.5 9 18.5 
7592 1 7.5 9.5 18 
7593 1 8 9 18 
7594 2 8 9.5 18.5 
7595 1 8.5 9 18.5 
7596 1 8.5 9.5 18 
7597 1 9 9 18 
7598 1 9 9.5 18.5 
7599 1 9.5 9 18.5 
7600 2 9.5 9.5 18 
7601 1 0 0 19 
7602 1 0 0.5 19.5 
7603 1 0.5 0 19.5 
7604 1 0.5 0.5 19 
7605 1 1 0 19 
7606 1 1 0.5 19.5 
7607 1 1.5 0 19.5 
7608 1 1.5 0.5 19 
7609 1 2 0 19 
7610 1 2 0.5 19.5 
7611 1 2.5 0 19.5 
7612 1 2.5 0.5 19 
7613 1 3 0 19 
7614 1 3 0.5 19.5 
7615 1 3.5 0 19.5 
7616 1 3.5 0.5 19 
7617 1 4 0 19 
7618 1 4 0.5 19.5 
7619 1 4.5 0 19.5 
7620 1 4.5 0.5 19 
7621 1 5 0 19 
7622 1 5 0.5 19.5 
7623 1 5.5 0 19.5 
7624 1 5.5 0.5 19 
7625 2 6 0 19 
7626 1 6 0.5 19.5 
7627 1 6.5 0 19.5 
7628 1 6.5 0.5 19 
7629 1 7 0 19 
7630 1 7 0.5 19.5 
7631 1 7.5 0 19.5 
7632 1 7.5 0.5 19 
7633 1 8 0 19 
7634 1 8 0.5 19.5 
7635 1 8.5 0 19.5 
7636 1 8.5 0.5 19 
7637 1 9 0 19 
7638 1 9 0.5 19.5 
7639 1 9.5 0 19.5 
7640 1 9.5 0.5 19 
7641 1 0 1 19 
7642 1 0 1.5 19.5 
7643 1 0.5 1 19.5 
7644 1 0.5 1.5 19 
7645 1 1 1 19 
7646 1 1 1.5 19.5 
7647 1 1.5 1 19.5 
7648 1 1.5 1.5 19 
7649 1 2 1 19 
7650 1 2 1.5 19.5 
7651 1 2.5 1 19.5 
7652 1 2.5 1.5 19 
7653 1 3 1 19 
7654 1 3 1.5 19.5 
7655 1 3.5 1 19.5 
7656 1 3.5 1.5 19 
7657 1 4 1 19 
7658 1 4 1.5 19.5 
7659 1 4.5 1 19.5 
7660 1 4.5 1.5 19 
7661 1 5 1 19 
7662 1 5 1.5 19.5 
7663 1 5.5 1 19.5 
7664 1 5.5 1.5 19 
7665 1 6 1 19 
7666 1 6 1.5 19.5 
7667 1 6.5 1 19.5 
7668 1 6.5 1.5 19 
7669 1 7 1 19 
7670 1 7 1.5 19.5 
7671 1 7.5 1 19.5 
7672 1 7.5 1.5 19 
7673 1 8 1 19 
7674 1 8 1.5 19.5 
7675 1 8.5 1 19.5 
7676 1 8.5 1.5 19 
7677 1 9 1 19 
7678 1 9 1.5 19.5 
7679 1 9.5 1 19.5 
7680 1 9.5 1.5 19 
7681 1 0 2 19 
7682 1 0 2.5 19.5 
7683 1 0.5 2 19.5 
7684 1 0.5 2.5 19 
7685 1 1 2 19 
7686 1 1 2.5 19.5 
7687 1 1.5 2 19.5 
7688 1 1.5 2.5 19 
7689 1 2 2 19 
7690 1 2 2.5 19.5 
7691 1 2.5 2 19.5 
7692 1 2.5 2.5 19 
7693 1 3 2 19 
7694 1 3 2.5 19.5 
7695 1 3.5 2 19.5 
7696 1 3.5 2.5 19 
7697 1 4 2 19 
7698 1 4 2.5 19.5 
7699 2 4.5 2 19.5 
7700 1 4.5 2.5 19 
7701 1 5 2 19 
7702 2 5 2.5 19.5 
7703 1 5.5 2 19.5 
7704 1 5.5 2.5 19 
7705 1 6 2 19 
7706 1 6 2.5 19.5 
7707 1 6.5 2 19.5 
7708 1 6.5 2.5 19 
7709 1 7 2 19 
7710 1 7 2.5 19.5 
7711 1 7.5 2 19.5 
7712 1 7.5 2.5 19 
7713 1 8 2 19 
7714 1 8 2.5 19.5 
7715 1 8.5 2 19.5 
7716 1 8.5 2.5 19 
7717 1 9 2 19 
7718 1 9 2.5 19.5 
7719 1 9.5 2 19.5 
7720 1 9.5 2.5 19 
7721 1 0 3 19 
7722 1 0 3.5 19.5 
7723 1 0.5 3 19.5 
7724 1 0.5 3.5 19 
7725 1 1 3 19 
7726 1 1 3.5 19.5 
7727 1 1.5 3 19.5 
7728 1 1.5 3.5 19 
7729 1 2 3 19 
7730 1 2 3.5 19.5 
7731 1 2.5 3 19.5 
7732 1 2.5 3.5 19 
7733 1 3 3 19 
7734 1 3 3.5 19.5 
7735 2 3.5 3 19.5 
7736 1 3.5 3.5 19 
7737 1 4 3 19 
7738 1 4 3.5 19.5 
7739 1 4.5 3 19.5 
7740 1 4.5 3.5 19 
7741 2 5 3 19 
7742 1 5 3.5 19.5 
7743 1 5.5 3 19.5 
7744 1 5.5 3.5 19 
7745 1 6 3 19 
7746 1 6 3.5 19.5 
7747 1 6.5 3 19.5 
7748 1 6.5 3.5 19 
7749 1 7 3 19 
7750 1 7 3.5 19.5 
7751 1 7.5 3 19.5 
7752 1 7.5 3.5 19 
7753 1 8 3 19 
7754 1 8 3.5 19.5 
7755 1 8.5 3 19.5 
7756 1 8.5 3.5 19 
7757 1 9 3 19 
7758 1 9 3.5 19.5 
7759 1 9.5 3 19.5 
7760 1 9.5 3.5 19 
7761 1 0 4 19 
7762 1 0 4.5 19.5 
7763 1 0.5 4 19.5 
7764 2 0.5 4.5 19 
7765 1 1 4 19 
7766 1 1 4.5 19.5 
7767 1 1.5 4 19.5 
7768 1 1.5 4.5 19 
7769 1 2 4 19 
7770 1 2 4.5 19.5 
7771 1 2.5 4 19.5 
7772 1 2.5 4.5 19 
7773 1 3 4 19 
7774 1 3 4.5 19.5 
7775 1 3.5 4 19.5 
7776 1 3.5 4.5 19 
7777 1 4 4 19 
7778 1 4 4.5 19.5 
7779 1 4.5 4 19.5 
7780 1 4.5 4.5 19 
7781 1 5 4 19 
7782 1 5 4.5 19.5 
7783 1 5.5 4 19.5 
7784 1 5.5 4.5 19 
7785 1 6 4 19 
7786 1 6 4.5 19.5 
7787 1 6.5 4 19.5 
7788 1 6.5 4.5 19 
7789 1 7 4 19 
7790 1 7 4.5 19.5 
7791 1 7.5 4 19.5 
7792 1 7.5 4.5 19 
7793 1 8 4 19 
7794 1 8 4.5 19.5 
7795 1 8.5 4 19.5 
7796 1 8.5 4.5 19 
7797 1 9 4 19 
7798 1 9 4.5 19.5 
7799 1 9.5 4 19.5 
7800 1 9.5 4.5 19 
7801 1 0 5 19 
7802 1 0 5.5 19.5 
7803 1 0.5 5 19.5 
7804 1 0.5 5.5 19 
7805 1 1 5 19 
7806 1 1 5.5 19.5 
7807 1 1.5 5 19.5 
7808 1 1.5 5.5 19 
7809 1 2 5 19 
7810 1 2 5.5 19.5 
7811 1 2.5 5 19.5 
7812 1 2.5 5.5 19 
7813 1 3 5 19 
7814 1 3 5.5 19.5 
7815 1 3.5 5 19.5 
7816 1 3.5 5.5 19 
7817 1 4 5 19 
7818 1 4 5.5 19.5 
7819 1 4.5 5 19.5 
7820 1 4.5 5.5 19 
7821 1 5 5 19 
7822 1 5 5.5 19.5 
7823 1 5.5 5 19.5 
7824 1 5.5 5.5 19 
7825 2 6 5 19 
7826 1 6 5.5 19.5 
7827 1 6.5 5 19.5 
7828 1 6.5 5.5 19 
7829 1 7 5 19 
7830 1 7 5.5 19.5 
7831 1 7.5 5 19.5 
7832 2 7.5 5.5 19 
7833 1 8 5 19 
7834 1 8 5.5 19.5 
7835 1 8.5 5 19.5 
7836 1 8.5 5.5 19 
7837 1 9 5 19 
7838 1 9 5.5 19.5 
7839 1 9.5 5 19.5 
7840 2 9.5 5.5 19 
7841 1 0 6 19 
7842 1 0 6.5 19.5 
7843 1 0.5 6 19.5 
7844 1 0.5 6.5 19 
7845 1 1 6 19 
7846 1 1 6.5 19.5 
7847 1 1.5 6 19.5 
7848 1 1.5 6.5 19 
7849 1 2 6 19 
7850 1 2 6.5 19.5 
7851 1 2.5 6 19.5 
7852 1 2.5 6.5 19 
7853 1 3 6 19 
7854 1 3 6.5 19.5 
7855 1 3.5 6 19.5 
7856 1 3.5 6.5 19 
7857 1 4 6 19 
7858 1 4 6.5 19.5 
7859 1 4.5 6 19.5 
7860 1 4.5 6.5 19 
7861 1 5 6 19 
7862 1 5 6.5 19.5 
7863 1 5.5 6 19.5 
7864 1 5.5 6.5 19 
7865 1 6 6 19 
7866 1 6 6.5 19.5 
7867 1 6.5 6 19.5 
7868 1 6.5 6.5 19 
7869 1 7 6 19 
7870 1 7 6.5 19.5 
7871 1 7.5 6 19.5 
7872 1 7.5 6.5 19 
7873 1 8 6 19 
7874 1 8 6.5 19.5 
7875 1 8.5 6 19.5 
7876 1 8.5 6.5 19 
7877 1 9 6 19 
7878 1 9 6.5 19.5 
7879 1 9.5 6 19.5 
7880 1 9.5 6.5 19 
7881 2 0 7 19 
7882 2 0 7.5 19.5 
7883 1 0.5 7 19.5 
7884 2 0.5 7.5 19 
7885 1 1 7 19 
7886 1 1 7.5 19.5 
7887 1 1.5 7 19.5 
7888 1 1.5 7.5 19 
7889 1 2 7 19 
7890 1 2 7.5 19.5 
7891 1 2.5 7 19.5 
7892 1 2.5 7.5 19 
7893 1 3 7 19 
7894 1 3 7.5 19.5 
7895 1 3.5 7 19.5 
7896 1 3.5 7.5 19 
7897 1 4 7 19 
7898 1 4 7.5 19.5 
7899 1 4.5 7 19.5 
7900 1 4.5 7.5 19 
7901 1 5 7 19 
7902 1 5 7.5 19.5 
7903 1 5.5 7 19.5 
7904 1 5.5 7.5 19 
7905 1 6 7 19 
7906 1 6 7.5 19.5 
7907 1 6.5 7 19.5 
7908 1 6.5 7.5 19 
7909 1 7 7 19 
7910 1 7 7.5 19.5 
7911 1 7.5 7 19.5 
7912 1 7.5 7.5 19 
7913 1 8 7 19 
7914 1 8 7.5 19.5 
7915 1 8.5 7 19.5 
7916 1 8.5 7.5 19 
7917 1 9 7 19 
7918 1 9 7.5 19.5 
7919 1 9.5 7 19.5 
7920 1 9.5 7.5 19 
7921 1 0 8 19 
7922 1 0 8.5 19.5 
7923 1 0.5 8 19.5 
7924 1 0.5 8.5 19 
7925 1 1 8 19 
7926 1 1 8.5 19.5 
7927 1 1.5 8 19.5 
7928 1 1.5 8.5 19 
7929 2 2 8 19 
7930 1 2 8.5 19.5 
7931 1 2.5 8 19.5 
7932 1 2.5 8.5 19 
7933 1 3 8 19 
7934 1 3 8.5 19.5 
7935 1 3.5 8 19.5 
7936 1 3.5 8.5 19 
7937 1 4 8 19 
7938 1 4 8.5 19.5 
7939 1 4.5 8 19.5 
7940 1 4.5 8.5 19 
7941 1 5 8 19 
7942 1 5 8.5 19.5 
7943 1 5.5 8 19.5 
7944 1 5.5 8.5 19 
7945 1 6 8 19 
7946 1 6 8.5 19.5 
7947 1 6.5 8 19.5 
7948 1 6.5 8.5 19 
7949 1 7 8 19 
7950 1 7 8.5 19.5 
7951 1 7.5 8 19.5 
7952 1 7.5 8.5 19 
7953 1 8 8 19 
7954 1 8 8.5 19.5 
7955 1 8.5 8 19.5 
7956 1 8.5 8.5 19 
7957 1 9 8 19 
7958 1 9 8.5 19.5 
7959 1 9.5 8 19.5 
7960 2 9.5 8.5 19 
7961 1 0 9 19 
7962 1 0 9.5 19.5 
7963 1 0.5 9 19.5 
7964 1 0.5 9.5 19 
7965 1 1 9 19 
7966 1 1 9.5 19.5 
7967 1 1.5 9 19.5 
7968 1 1.5 9.5 19 
7969 1 2 9 19 
7970 1 2 9.5 19.5 
7971 1 2.5 9 19.5 
7972 1 2.5 9.5 19 
7973 1 3 9 19 
7974 1 3 9.5 19.5 
7975 1 3.5 9 19.5 
7976 1 3.5 9.5 19 
7977 1 4 9 19 
7978 1 4 9.5 19.5 
7979 1 4.5 9 19.5 
7980 1 4.5 9.5 19 
7981 2 5 9 19 
7982 1 5 9.5 19.5 
7983 2 5.5 9 19.5 
7984 1 5.5 9.5 19 
7985 1 6 9 19 
7986 1 6 9.5 19.5 
7987 1 6.5 9 19.5 
7988 1 6.5 9.5 19 
7989 1 7 9 19 
7990 1 7 9.5 19.5 
7991 1 7.5 9 19.5 
7992 1 7.5 9.5 19 
7993 1 8 9 19 
7994 1 8 9.5 19.5 
7995 1 8.5 9 19.5 
7996 1 8.5 9.5 19 
7997 1 9 9 19 
7998 1 9 9.5 19.5 
7999 1 9.5 9 19.5 
8000 1 9.5 9.5 19 
ITEM: TIMESTEP
1      1e-09
ITEM: NUMBER OF ATOMS
8000
ITEM: BOX BOUNDS
0 10
0 10
0 20
ITEM: ATOMS id type x y z
1 1 0 0 0 
2 1 0 0.5 0.5 
3 1 0.5 0 0.5 
4 1 0.5 0.5 0 
5 1 1 0 0 
6 1 1 0.5 0.5 
7 1 1.5 0 0.5 
8 1 1.5 0.5 0 
9 1 2 0 0 
10 1 2 0.5 0.5 
11 1 2.5 0 0.5 
12 1 2.5 0.5 0 
13 1 3 0 0 
14 1 3 0.5 0.5 
15 1 3.5 0 0.5 
16 1 3.5 0.5 0 
17 1 4 0 0 
18 2 4 0.5 0.5 
19 1 4.5 0 0.5 
20 1 4.5 0.5 0 
21 1 5 0 0 
22 1 5 0.5 0.5 
23 2 5.5 0 0.5 
24 1 5.5 0.5 0 
25 1 6 0 0 
26 1 6 0.5 0.5 
27 1 6.5 0 0.5 
28 1 6.5 0.5 0 
29 1 7 0 0 
30 1 7 0.5 0.5 
31 1 7.5 0 0.5 
32 1 7.5 0.5 0 
33 1 8 0 0 
34 1 8 0.5 0.5 
35 1 8.5 0 0.5 
36 1 8.5 0.5 0 
37 1 9 0 0 
38 1 9 0.5 0.5 
39 1 9.5 0 0.5 
40 1 9.5 0.5 0 
41 1 0 1 0 
42 1 0 1.5 0.5 
43 1 0.5 1 0.5 
44 1 0.5 1.5 0 
45 1 1 1 0 
46 1 1 1.5 0.5 
47 1 1.5 1 0.5 
48 1 1.5 1.5 0 
49 1 2 1 0 
50 1 2 1.5 0.5 
51 1 2.5 1 0.5 
52 1 2.5 1.5 0 
53 1 3 1 0 
54 1 3 1.5 0.5 
55 1 3.5 1 0.5 
56 1 3.5 1.5 0 
57 1 4 1 0 
58 1 4 1.5 0.5 
59 1 4.5 1 0.5 
60 2 4.5 1.5 0 
61 1 5 1 0 
62 1 5 1.5 0.5 
63 1 5.5 1 0.5 
64 1 5.5 1.5 0 
65 1 6 1 0 
66 1 6 1.5 0.5 
67 1 6.5 1 0.5 
68 1 6.5 1.5 0 
69 2 7 1 0 
70 1 7 1.5 0.5 
71 1 7.5 1 0.5 
72 1 7.5 1.5 0 
73 1 8 1 0 
74 1 8 1.5 0.5 
75 1 8.5 1 0.5 
76 1 8.5 1.5 0 
77 1 9 1 0 
78 1 9 1.5 0.5 
79 1 9.5 1 0.5 
80 1 9.5 1.5 0 
81 1 0 2 0 
82 1 0 2.5 0.5 
83 1 0.5 2 0.5 
84 1 0.5 2.5 0 
85 1 1 2 0 
86 1 1 2.5 0.5 
87 1 1.5 2 0.5 
88 1 1.5 2.5 0 
89 1 2 2 0 
90 1 2 2.5 0.5 
91 1 2.5 2 0.5 
92 1 2.5 2.5 0 
93 1 3 2 0 
94 1 3 2.5 0.5 
95 1 3.5 2 0.5 
96 1 3.5 2.5 0 
97 1 4 2 0 
98 1 4 2.5 0.5 
99 1 4.5 2 0.5 
100 1 4.5 2.5 0 
101 1 5 2 0 
102 1 5 2.5 0.5 
103 1 5.5 2 0.5 
104 1 5.5 2.5 0 
105 1 6 2 0 
106 1 6 2.5 0.5 
107 1 6.5 2 0.5 
108 1 6.5 2.5 0 
109 1 7 2 0 
110 1 7 2.5 0.5 
111 1 7.5 2 0.5 
112 1 7.5 2.5 0 
113 1 8 2 0 
114 1 8 2.5 0.5 
115 1 8.5 2 0.5 
116 1 8.5 2.5 0 
117 1 9 2 0 
118 1 9 2.5 0.5 
119 1 9.5 2 0.5 
120 1 9.5 2.5 0 
121 1 0 3 0 
122 1 0 3.5 0.5 
123 1 0.5 3 0.5 
124 1 0.5 3.5 0 
125 1 1 3 0 
126 1 1 3.5 0.5 
127 1 1.5 3 0.5 
128 1 1.5 3.5 0 
129 1 2 3 0 
130 1 2 3.5 0.5 
131 1 2.5 3 0.5 
132 1 2.5 3.5 0 
133 1 3 3 0 
134 1 3 3.5 0.5 
135 1 3.5 3 0.5 
136 1 3.5 3.5 0 
137 1 4 3 0 
138 1 4 3.5 0.5 
139 1 4.5 3 0.5 
140 1 4.5 3.5 0 
141 1 5 3 0 
142 1 5 3.5 0.5 
143 1 5.5 3 0.5 
144 1 5.5 3.5 0 
145 1 6 3 0 
146 1 6 3.5 0.5 
147 1 6.5 3 0.5 
148 1 6.5 3.5 0 
149 1 7 3 0 
150 2 7 3.5 0.5 
151 1 7.5 3 0.5 
152 1 7.5 3.5 0 
153 1 8 3 0 
154 1 8 3.5 0.5 
155 1 8.5 3 0.5 
156 1 8.5 3.5 0 
157 1 9 3 0 
158 1 9 3.5 0.5 
159 1 9.5 3 0.5 
160 1 9.5 3.5 0 
161 1 0 4 0 
162 1 0 4.5 0.5 
163 1 0.5 4 0.5 
164 1 0.5 4.5 0 
165 1 1 4 0 
166 1 1 4.5 0.5 
167 1 1.5 4 0.5 
168 1 1.5 4.5 0 
169 1 2 4 0 
170 1 2 4.5 0.5 
171 1 2.5 4 0.5 
172 1 2.5 4.5 0 
173 1 3 4 0 
174 1 3 4.5 0.5 
175 1 3.5 4 0.5 
176 1 3.5 4.5 0 
177 1 4 4 0 
178 1 4 4.5 0.5 
179 1 4.5 4 0.5 
180 1 4.5 4.5 0 
181 1 5 4 0 
182 1 5 4.5 0.5 
183 1 5.5 4 0.5 
184 1 5.5 4.5 0 
185 1 6 4 0 
186 1 6 4.5 0.5 
187 1 6.5 4 0.5 
188 1 6.5 4.5 0 
189 1 7 4 0 
190 1 7 4.5 0.5 
191 1 7.5 4 0.5 
192 1 7.5 4.5 0 
193 1 8 4 0 
194 1 8 4.5 0.5 
195 1 8.5 4 0.5 
196 1 8.5 4.5 0 
197 1 9 4 0 
198 1 9 4.5 0.5 
199 1 9.5 4 0.5 
200 1 9.5 4.5 0 
201 1 0 5 0 
202 1 0 5.5 0.5 
203 1 0.5 5 0.5 
204 1 0.5 5.5 0 
205 1 1 5 0 
206 1 1 5.5 0.5 
207 1 1.5 5 0.5 
208 1 1.5 5.5 0 
209 1 2 5 0 
210 1 2 5.5 0.5 
211 1 2.5 5 0.5 
212 1 2.5 5.5 0 
213 1 3 5 0 
214 1 3 5.5 0.5 
215 1 3.5 5 0.5 
216 1 3.5 5.5 0 
217 1 4 5 0 
218 1 4 5.5 0.5 
219 1 4.5 5 0.5 
220 2 4.5 5.5 0 
221 1 5 5 0 
222 1 5 5.5 0.5 
223 1 5.5 5 0.5 
224 1 5.5 5.5 0 
225 1 6 5 0 
226 1 6 5.5 0.5 
227 1 6.5 5 0.5 
228 1 6.5 5.5 0 
229 1 7 5 0 
230 1 7 5.5 0.5 
231 1 7.5 5 0.5 
232 1 7.5 5.5 0 
233 1 8 5 0 
234 1 8 5.5 0.5 
235 1 8.5 5 0.5 
236 1 8.5 5.5 0 
237 1 9 5 0 
238 1 9 5.5 0.5 
239 1 9.5 5 0.5 
240 1 9.5 5.5 0 
241 1 0 6 0 
242 1 0 6.5 0.5 
243 1 0.5 6 0.5 
244 1 0.5 6.5 0 
245 1 1 6 0 
246 1 1 6.5 0.5 
247 1 1.5 6 0.5 
248 1 1.5 6.5 0 
249 1 2 6 0 
250 1 2 6.5 0.5 
251 1 2.5 6 0.5 
252 1 2.5 6.5 0 
253 1 3 6 0 
254 1 3 6.5 0.5 
255 1 3.5 6 0.5 
256 1 3.5 6.5 0 
257 1 4 6 0 
258 1 4 6.5 0.5 
259 1 4.5 6 0.5 
260 1 4.5 6.5 0 
261 2 5 6 0 
262 1 5 6.5 0.5 
263 1 5.5 6 0.5 
264 1 5.5 6.5 0 
265 1 6 6 0 
266 1 6 6.5 0.5 
267 1 6.5 6 0.5 
268 1 6.5 6.5 0 
269 1 7 6 0 
270 1 7 6.5 0.5 
271 1 7.5 6 0.5 
272 1 7.5 6.5 0 
273 1 8 6 0 
274 1 8 6.5 0.5 
275 1 8.5 6 0.5 
276 1 8.5 6.5 0 
277 1 9 6 0 
278 1 9 6.5 0.5 
279 1 9.5 6 0.5 
280 2 9.5 6.5 0 
281 1 0 7 0 
282 1 0 7.5 0.5 
283 1 0.5 7 0.5 
284 1 0.5 7.5 0 
285 1 1 7 0 
286 1 1 7.5 0.5 
287 1 1.5 7 0.5 
288 1 1.5 7.5 0 
289 1 2 7 0 
290 1 2 7.5 0.5 
291 1 2.5 7 0.5 
292 1 2.5 7.5 0 
293 1 3 7 0 
294 1 3 7.5 0.5 
295 1 3.5 7 0.5 
296 1 3.5 7.5 0 
297 1 4 7 0 
298 1 4 7.5 0.5 
299 1 4.5 7 0.5 
300 1 4.5 7.5 0 
301 1 5 7 0 
302 1 5 7.5 0.5 
303 1 5.5 7 0.5 
304 1 5.5 7.5 0 
305 1 6 7 0 
306 1 6 7.5 0.5 
307 1 6.5 7 0.5 
308 1 6.5 7.5 0 
309 1 7 7 0 
310 1 7 7.5 0.5 
311 1 7.5 7 0.5 
312 1 7.5 7.5 0 
313 1 8 7 0 
314 1 8 7.5 0.5 
315 1 8.5 7 0.5 
316 1 8.5 7.5 0 
317 1 9 7 0 
318 1 9 7.5 0.5 
319 1 9.5 7 0.5 
320 1 9.5 7.5 0 
321 1 0 8 0 
322 1 0 8.5 0.5 
323 1 0.5 8 0.5 
324 1 0.5 8.5 0 
325 1 1 8 0 
326 1 1 8.5 0.5 
327 1 1.5 8 0.5 
328 1 1.5 8.5 0 
329 1 2 8 0 
330 1 2 8.5 0.5 
331 1 2.5 8 0.5 
332 1 2.5 8.5 0 
333 1 3 8 0 
334 1 3 8.5 0.5 
335 1 3.5 8 0.5 
336 1 3.5 8.5 0 
337 1 4 8 0 
338 1 4 8.5 0.5 
339 1 4.5 8 0.5 
340 1 4.5 8.5 0 
341 1 5 8 0 
342 1 5 8.5 0.5 
343 1 5.5 8 0.5 
344 1 5.5 8.5 0 
345 1 6 8 0 
346 1 6 8.5 0.5 
347 1 6.5 8 0.5 
348 1 6.5 8.5 0 
349 1 7 8 0 
350 1 7 8.5 0.5 
351 1 7.5 8 0.5 
352 1 7.5 8.5 0 
353 1 8 8 0 
354 1 8 8.5 0.5 
355 1 8.5 8 0.5 
356 1 8.5 8.5 0 
357 1 9 8 0 
358 1 9 8.5 0.5 
359 1 9.5 8 0.5 
360 1 9.5 8.5 0 
361 1 0 9 0 
362 1 0 9.5 0.5 
363 1 0.5 9 0.5 
364 1 0.5 9.5 0 
365 1 1 9 0 
366 1 1 9.5 0.5 
367 1 1.5 9 0.5 
368 1 1.5 9.5 0 
369 1 2 9 0 
370 1 2 9.5 0.5 
371 1 2.5 9 0.5 
372 1 2.5 9.5 0 
373 1 3 9 0 
374 1 3 9.5 0.5 
375 1 3.5 9 0.5 
376 1 3.5 9.5 0 
377 1 4 9 0 
378 1 4 9.5 0.5 
379 1 4.5 9 0.5 
380 1 4.5 9.5 0 
381 1 5 9 0 
382 2 5 9.5 0.5 
383 1 5.5 9 0.5 
384 1 5.5 9.5 0 
385 1 6 9 0 
386 1 6 9.5 0.5 
387 1 6.5 9 0.5 
388 1 6.5 9.5 0 
389 1 7 9 0 
390 1 7 9.5 0.5 
391 1 7.5 9 0.5 
392 1 7.5 9.5 0 
393 1 8 9 0 
394 1 8 9.5 0.5 
395 2 8.5 9 0.5 
396 1 8.5 9.5 0 
397 1 9 9 0 
398 1 9 9.5 0.5 
399 1 9.5 9 0.5 
400 1 9.5 9.5 0 
401 1 0 0 1 
402 1 0 0.5 1.5 
403 1 0.5 0 1.5 
404 1 0.5 0.5 1 
405 1 1 0 1 
406 1 1 0.5 1.5 
407 1 1.5 0 1.5 
408 1 1.5 0.5 1 
409 1 2 0 1 
410 1 2 0.5 1.5 
411 2 2.5 0 1.5 
412 1 2.5 0.5 1 
413 1 3 0 1 
414 1 3 0.5 1.5 
415 2 3.5 0 1.5 
416 1 3.5 0.5 1 
417 1 4 0 1 
418 2 4 0.5 1.5 
419 1 4.5 0 1.5 
420 1 4.5 0.5 1 
421 1 5 0 1 
422 1 5 0.5 1.5 
423 1 5.5 0 1.5 
424 1 5.5 0.5 1 
425 1 6 0 1 
426 1 6 0.5 1.5 
427 1 6.5 0 1.5 
428 1 6.5 0.5 1 
429 1 7 0 1 
430 1 7 0.5 1.5 
431 1 7.5 0 1.5 
432 1 7.5 0.5 1 
433 1 8 0 1 
434 1 8 0.5 1.5 
435 1 8.5 0 1.5 
436 2 8.5 0.5 1 
437 1 9 0 1 
438 1 9 0.5 1.5 
439 1 9.5 0 1.5 
440 1 9.5 0.5 1 
441 1 0 1 1 
442 1 0 1.5 1.5 
443 1 0.5 1 1.5 
444 1 0.5 1.5 1 
445 1 1 1 1 
446 1 1 1.5 1.5 
447 1 1.5 1 1.5 
448 1 1.5 1.5 1 
449 1 2 1 1 
450 1 2 1.5 1.5 
451 1 2.5 1 1.5 
452 1 2.5 1.5 1 
453 1 3 1 1 
454 1 3 1.5 1.5 
455 2 3.5 1 1.5 
456 1 3.5 1.5 1 
457 1 4 1 1 
458 1 4 1.5 1.5 
459 1 4.5 1 1.5 
460 1 4.5 1.5 1 
461 1 5 1 1 
462 1 5 1.5 1.5 
463 1 5.5 1 1.5 
464 1 5.5 1.5 1 
465 1 6 1 1 
466 1 6 1.5 1.5 
467 1 6.5 1 1.5 
468 1 6.5 1.5 1 
469 1 7 1 1 
470 1 7 1.5 1.5 
471 1 7.5 1 1.5 
472 1 7.5 1.5 1 
473 1 8 1 1 
474 1 8 1.5 1.5 
475 1 8.5 1 1.5 
476 1 8.5 1.5 1 
477 2 9 1 1 
478 1 9 1.5 1.5 
479 1 9.5 1 1.5 
480 1 9.5 1.5 1 
481 1 0 2 1 
482 1 0 2.5 1.5 
483 2 0.5 2 1.5 
484 1 0.5 2.5 1 
485 1 1 2 1 
486 1 1 2.5 1.5 
487 1 1.5 2 1.5 
488 1 1.5 2.5 1 
489 1 2 2 1 
490 1 2 2.5 1.5 
491 1 2.5 2 1.5 
492 1 2.5 2.5 1 
493 1 3 2 1 
494 1 3 2.5 1.5 
495 1 3.5 2 1.5 
496 1 3.5 2.5 1 
497 1 4 2 1 
498 1 4 2.5 1.5 
499 1 4.5 2 1.5 
500 1 4.5 2.5 1 
501 2 5 2 1 
502 1 5 2.5 1.5 
503 1 5.5 2 1.5 
504 1 5.5 2.5 1 
505 1 6 2 1 
506 1 6 2.5 1.5 
507 1 6.5 2 1.5 
508 1 6.5 2.5 1 
509 1 7 2 1 
510 1 7 2.5 1.5 
511 1 7.5 2 1.5 
512 1 7.5 2.5 1 
513 1 8 2 1 
514 1 8 2.5 1.5 
515 1 8.5 2 1.5 
516 1 8.5 2.5 1 
517 1 9 2 1 
518 2 9 2.5 1.5 
519 1 9.5 2 1.5 
520 1 9.5 2.5 1 
521 1 0 3 1 
522 1 0 3.5 1.5 
523 1 0.5 3 1.5 
524 1 0.5 3.5 1 
525 1 1 3 1 
526 1 1 3.5 1.5 
527 1 1.5 3 1.5 
528 1 1.5 3.5 1 
529 1 2 3 1 
530 1 2 3.5 1.5 
531 1 2.5 3 1.5 
532 2 2.5 3.5 1 
533 1 3 3 1 
534 1 3 3.5 1.5 
535 1 3.5 3 1.5 
536 1 3.5 3.5 1 
537 1 4 3 1 
538 1 4 3.5 1.5 
539 1 4.5 3 1.5 
540 1 4.5 3.5 1 
541 1 5 3 1 
542 1 5 3.5 1.5 
543 1 5.5 3 1.5 
544 1 5.5 3.5 1 
545 1 6 3 1 
546 1 6 3.5 1.5 
547 1 6.5 3 1.5 
548 1 6.5 3.5 1 
549 1 7 3 1 
550 1 7 3.5 1.5 
551 1 7.5 3 1.5 
552 1 7.5 3.5 1 
553 1 8 3 1 
554 1 8 3.5 1.5 
555 1 8.5 3 1.5 
556 1 8.5 3.5 1 
557 1 9 3 1 
558 1 9 3.5 1.5 
559 1 9.5 3 1.5 
560 1 9.5 3.5 1 
561 1 0 4 1 
562 1 0 4.5 1.5 
563 1 0.5 4 1.5 
564 1 0.5 4.5 1 
565 1 1 4 1 
566 1 1 4.5 1.5 
567 2 1.5 4 1.5 
568 1 1.5 4.5 1 
569 1 2 4 1 
570 1 2 4.5 1.5 
571 1 2.5 4 1.5 
572 1 2.5 4.5 1 
573 1 3 4 1 
574 1 3 4.5 1.5 
575 1 3.5 4 1.5 
576 1 3.5 4.5 1 
577 1 4 4 1 
578 1 4 4.5 1.5 
579 1 4.5 4 1.5 
580 1 4.5 4.5 1 
581 1 5 4 1 
582 1 5 4.5 1.5 
583 1 5.5 4 1.5 
584 1 5.5 4.5 1 
585 1 6 4 1 
586 1 6 4.5 1.5 
587 1 6.5 4 1.5 
588 1 6.5 4.5 1 
589 1 7 4 1 
590 1 7 4.5 1.5 
591 1 7.5 4 1.5 
592 1 7.5 4.5 1 
593 1 8 4 1 
594 1 8 4.5 1.5 
595 1 8.5 4 1.5 
596 1 8.5 4.5 1 
597 1 9 4 1 
598 1 9 4.5 1.5 
599 2 9.5 4 1.5 
600 1 9.5 4.5 1 
601 1 0 5 1 
602 1 0 5.5 1.5 
603 1 0.5 5 1.5 
604 1 0.5 5.5 1 
605 1 1 5 1 
606 1 1 5.5 1.5 
607 1 1.5 5 1.5 
608 1 1.5 5.5 1 
609 1 2 5 1 
610 1 2 5.5 1.5 
611 1 2.5 5 1.5 
612 1 2.5 5.5 1 
613 1 3 5 1 
614 2 3 5.5 1.5 
615 1 3.5 5 1.5 
616 1 3.5 5.5 1 
617 1 4 5 1 
618 1 4 5.5 1.5 
619 1 4.5 5 1.5 
620 1 4.5 5.5 1 
621 1 5 5 1 
622 1 5 5.5 1.5 
623 1 5.5 5 1.5 
624 1 5.5 5.5 1 
625 1 6 5 1 
626 1 6 5.5 1.5 
627 2 6.5 5 1.5 
628 1 6.5 5.5 1 
629 1 7 5 1 
630 1 7 5.5 1.5 
631 1 7.5 5 1.5 
632 1 7.5 5.5 1 
633 1 8 5 1 
634 1 8 5.5 1.5 
635 1 8.5 5 1.5 
636 1 8.5 5.5 1 
637 1 9 5 1 
638 1 9 5.5 1.5 
639 1 9.5 5 1.5 
640 1 9.5 5.5 1 
641 1 0 6 1 
642 1 0 6.5 1.5 
643 1 0.5 6 1.5 
644 1 0.5 6.5 1 
645 1 1 6 1 
646 1 1 6.5 1.5 
647 1 1.5 6 1.5 
648 1 1.5 6.5 1 
649 1 2 6 1 
650 2 2 6.5 1.5 
651 1 2.5 6 1.5 
652 1 2.5 6.5 1 
653 2 3 6 1 
654 1 3 6.5 1.5 
655 1 3.5 6 1.5 
656 1 3.5 6.5 1 
657 1 4 6 1 
658 1 4 6.5 1.5 
659 1 4.5 6 1.5 
660 1 4.5 6.5 1 
661 1 5 6 1 
662 1 5 6.5 1.5 
663 1 5.5 6 1.5 
664 1 5.5 6.5 1 
665 1 6 6 1 
666 1 6 6.5 1.5 
667 1 6.5 6 1.5 
668 1 6.5 6.5 1 
669 1 7 6 1 
670 1 7 6.5 1.5 
671 1 7.5 6 1.5 
672 1 7.5 6.5 1 
673 1 8 6 1 
674 1 8 6.5 1.5 
675 1 8.5 6 1.5 
676 1 8.5 6.5 1 
677 1 9 6 1 
678 1 9 6.5 1.5 
679 1 9.5 6 1.5 
680 1 9.5 6.5 1 
681 1 0 7 1 
682 1 0 7.5 1.5 
683 1 0.5 7 1.5 
684 2 0.5 7.5 1 
685 2 1 7 1 
686 1 1 7.5 1.5 
687 1 1.5 7 1.5 
688 1 1.5 7.5 1 
689 1 2 7 1 
690 1 2 7.5 1.5 
691 1 2.5 7 1.5 
692 1 2.5 7.5 1 
693 1 3 7 1 
694 1 3 7.5 1.5 
695 1 3.5 7 1.5 
696 2 3.5 7.5 1 
697 1 4 7 1 
698 2 4 7.5 1.5 
699 1 4.5 7 1.5 
700 1 4.5 7.5 1 
701 1 5 7 1 
702 2 5 7.5 1.5 
703 2 5.5 7 1.5 
704 1 5.5 7.5 1 
705 1 6 7 1 
706 1 6 7.5 1.5 
707 1 6.5 7 1.5 
708 1 6.5 7.5 1 
709 1 7 7 1 
710 2 7 7.5 1.5 
711 1 7.5 7 1.5 
712 1 7.5 7.5 1 
713 1 8 7 1 
714 1 8 7.5 1.5 
715 1 8.5 7 1.5 
716 2 8.5 7.5 1 
717 1 9 7 1 
718 1 9 7.5 1.5 
719 1 9.5 7 1.5 
720 1 9.5 7.5 1 
721 1 0 8 1 
722 1 0 8.5 1.5 
723 1 0.5 8 1.5 
724 1 0.5 8.5 1 
725 1 1 8 1 
726 1 1 8.5 1.5 
727 1 1.5 8 1.5 
728 1 1.5 8.5 1 
729 1 2 8 1 
730 1 2 8.5 1.5 
731 1 2.5 8 1.5 
732 1 2.5 8.5 1 
733 1 3 8 1 
734 1 3 8.5 1.5 
735 1 3.5 8 1.5 
736 1 3.5 8.5 1 
737 1 4 8 1 
738 1 4 8.5 1.5 
739 1 4.5 8 1.5 
740 1 4.5 8.5 1 
741 1 5 8 1 
742 1 5 8.5 1.5 
743 1 5.5 8 1.5 
744 1 5.5 8.5 1 
745 1 6 8 1 
746 1 6 8.5 1.5 
747 1 6.5 8 1.5 
748 1 6.5 8.5 1 
749 1 7 8 1 
750 1 7 8.5 1.5 
751 1 7.5 8 1.5 
752 1 7.5 8.5 1 
753 1 8 8 1 
754 1 8 8.5 1.5 
755 1 8.5 8 1.5 
756 1 8.5 8.5 1 
757 1 9 8 1 
758 1 9 8.5 1.5 
759 1 9.5 8 1.5 
760 1 9.5 8.5 1 
761 1 0 9 1 
762 1 0 9.5 1.5 
763 1 0.5 9 1.5 
764 1 0.5 9.5 1 
765 1 1 9 1 
766 1 1 9.5 1.5 
767 1 1.5 9 1.5 
768 1 1.5 9.5 1 
769 1 2 9 1 
770 1 2 9.5 1.5 
771 1 2.5 9 1.5 
772 1 2.5 9.5 1 
773 1 3 9 1 
774 2 3 9.5 1.5 
775 2 3.5 9 1.5 
776 1 3.5 9.5 1 
777 1 4 9 1 
778 1 4 9.5 1.5 
779 1 4.5 9 1.5 
780 2 4.5 9.5 1 
781 1 5 9 1 
782 1 5 9.5 1.5 
783 1 5.5 9 1.5 
784 1 5.5 9.5 1 
785 1 6 9 1 
786 1 6 9.5 1.5 
787 1 6.5 9 1.5 
788 1 6.5 9.5 1 
789 1 7 9 1 
790 1 7 9.5 1.5 
791 1 7.5 9 1.5 
792 1 7.5 9.5 1 
793 1 8 9 1 
794 1 8 9.5 1.5 
795 1 8.5 9 1.5 
796 1 8.5 9.5 1 
797 1 9 9 1 
798 1 9 9.5 1.5 
799 1 9.5 9 1.5 
800 1 9.5 9.5 1 
801 1 0 0 2 
802 2 0 0.5 2.5 
803 1 0.5 0 2.5 
804 1 0.5 0.5 2 
805 1 1 0 2 
806 1 1 0.5 2.5 
807 1 1.5 0 2.5 
808 1 1.5 0.5 2 
809 1 2 0 2 
810 1 2 0.5 2.5 
811 2 2.5 0 2.5 
812 1 2.5 0.5 2 
813 2 3 0 2 
814 1 3 0.5 2.5 
815 1 3.5 0 2.5 
816 1 3.5 0.5 2 
817 1 4 0 2 
818 1 4 0.5 2.5 
819 1 4.5 0 2.5 
820 1 4.5 0.5 2 
821 1 5 0 2 
822 1 5 0.5 2.5 
823 1 5.5 0 2.5 
824 1 5.5 0.5 2 
825 1 6 0 2 
826 1 6 0.5 2.5 
827 1 6.5 0 2.5 
828 2 6.5 0.5 2 
829 1 7 0 2 
830 1 7 0.5 2.5 
831 1 7.5 0 2.5 
832 1 7.5 0.5 2 
833 2 8 0 2 
834 2 8 0.5 2.5 
835 1 8.5 0 2.5 
836 1 8.5 0.5 2 
837 1 9 0 2 
838 1 9 0.5 2.5 
839 1 9.5 0 2.5 
840 1 9.5 0.5 2 
841 1 0 1 2 
842 1 0 1.5 2.5 
843 1 0.5 1 2.5 
844 1 0.5 1.5 2 
845 1 1 1 2 
846 1 1 1.5 2.5 
847 1 1.5 1 2.5 
848 1 1.5 1.5 2 
849 1 2 1 2 
850 1 2 1.5 2.5 
851 1 2.5 1 2.5 
852 1 2.5 1.5 2 
853 1 3 1 2 
854 1 3 1.5 2.5 
855 1 3.5 1 2.5 
856 1 3.5 1.5 2 
857 1 4 1 2 
858 1 4 1.5 2.5 
859 1 4.5 1 2.5 
860 1 4.5 1.5 2 
861 2 5 1 2 
862 1 5 1.5 2.5 
863 1 5.5 1 2.5 
864 1 5.5 1.5 2 
865 1 6 1 2 
866 1 6 1.5 2.5 
867 2 6.5 1 2.5 
868 1 6.5 1.5 2 
869 1 7 1 2 
870 1 7 1.5 2.5 
871 1 7.5 1 2.5 
872 1 7.5 1.5 2 
873 1 8 1 2 
874 1 8 1.5 2.5 
875 1 8.5 1 2.5 
876 2 8.5 1.5 2 
877 1 9 1 2 
878 2 9 1.5 2.5 
879 2 9.5 1 2.5 
880 1 9.5 1.5 2 
881 1 0 2 2 
882 1 0 2.5 2.5 
883 1 0.5 2 2.5 
884 1 0.5 2.5 2 
885 1 1 2 2 
886 1 1 2.5 2.5 
887 1 1.5 2 2.5 
888 2 1.5 2.5 2 
889 1 2 2 2 
890 1 2 2.5 2.5 
891 1 2.5 2 2.5 
892 1 2.5 2.5 2 
893 1 3 2 2 
894 1 3 2.5 2.5 
895 1 3.5 2 2.5 
896 1 3.5 2.5 2 
897 1 4 2 2 
898 1 4 2.5 2.5 
899 1 4.5 2 2.5 
900 1 4.5 2.5 2 
901 1 5 2 2 
902 1 5 2.5 2.5 
903 1 5.5 2 2.5 
904 1 5.5 2.5 2 
905 1 6 2 2 
906 1 6 2.5 2.5 
907 1 6.5 2 2.5 
908 1 6.5 2.5 2 
909 1 7 2 2 
910 1 7 2.5 2.5 
911 1 7.5 2 2.5 
912 2 7.5 2.5 2 
913 1 8 2 2 
914 1 8 2.5 2.5 
915 1 8.5 2 2.5 
916 1 8.5 2.5 2 
917 1 9 2 2 
918 2 9 2.5 2.5 
919 2 9.5 2 2.5 
920 1 9.5 2.5 2 
921 1 0 3 2 
922 1 0 3.5 2.5 
923 1 0.5 3 2.5 
924 1 0.5 3.5 2 
925 1 1 3 2 
926 1 1 3.5 2.5 
927 1 1.5 3 2.5 
928 1 1.5 3.5 2 
929 1 2 3 2 
930 2 2 3.5 2.5 
931 1 2.5 3 2.5 
932 1 2.5 3.5 2 
933 1 3 3 2 
934 1 3 3.5 2.5 
935 1 3.5 3 2.5 
936 1 3.5 3.5 2 
937 1 4 3 2 
938 1 4 3.5 2.5 
939 1 4.5 3 2.5 
940 1 4.5 3.5 2 
941 1 5 3 2 
942 1 5 3.5 2.5 
943 1 5.5 3 2.5 
944 1 5.5 3.5 2 
945 1 6 3 2 
946 1 6 3.5 2.5 
947 1 6.5 3 2.5 
948 1 6.5 3.5 2 
949 1 7 3 2 
950 1 7 3.5 2.5 
951 1 7.5 3 2.5 
952 2 7.5 3.5 2 
953 1 8 3 2 
954 1 8 3.5 2.5 
955 2 8.5 3 2.5 
956 1 8.5 3.5 2 
957 1 9 3 2 
958 1 9 3.5 2.5 
959 1 9.5 3 2.5 
960 1 9.5 3.5 2 
961 1 0 4 2 
962 1 0 4.5 2.5 
963 1 0.5 4 2.5 
964 1 0.5 4.5 2 
965 1 1 4 2 
966 1 1 4.5 2.5 
967 1 1.5 4 2.5 
968 1 1.5 4.5 2 
969 1 2 4 2 
970 2 2 4.5 2.5 
971 1 2.5 4 2.5 
972 1 2.5 4.5 2 
973 1 3 4 2 
974 1 3 4.5 2.5 
975 1 3.5 4 2.5 
976 1 3.5 4.5 2 
977 1 4 4 2 
978 1 4 4.5 2.5 
979 1 4.5 4 2.5 
980 1 4.5 4.5 2 
981 1 5 4 2 
982 1 5 4.5 2.5 
983 1 5.5 4 2.5 
984 1 5.5 4.5 2 
985 1 6 4 2 
986 1 6 4.5 2.5 
987 1 6.5 4 2.5 
988 1 6.5 4.5 2 
989 1 7 4 2 
990 2 7 4.5 2.5 
991 1 7.5 4 2.5 
992 1 7.5 4.5 2 
993 1 8 4 2 
994 1 8 4.5 2.5 
995 1 8.5 4 2.5 
996 1 8.5 4.5 2 
997 1 9 4 2 
998 1 9 4.5 2.5 
999 1 9.5 4 2.5 
1000 2 9.5 4.5 2 
1001 1 0 5 2 
1002 1 0 5.5 2.5 
1003 1 0.5 5 2.5 
1004 1 0.5 5.5 2 
1005 1 1 5 2 
1006 2 1 5.5 2.5 
1007 1 1.5 5 2.5 
1008 2 1.5 5.5 2 
1009 1 2 5 2 
1010 1 2 5.5 2.5 
1011 1 2.5 5 2.5 
1012 2 2.5 5.5 2 
1013 1 3 5 2 
1014 1 3 5.5 2.5 
1015 1 3.5 5 2.5 
1016 1 3.5 5.5 2 
1017 1 4 5 2 
1018 1 4 5.5 2.5 
1019 1 4.5 5 2.5 
1020 1 4.5 5.5 2 
1021 1 5 5 2 
1022 1 5 5.5 2.5 
1023 1 5.5 5 2.5 
1024 1 5.5 5.5 2 
1025 2 6 5 2 
1026 1 6 5.5 2.5 
1027 2 6.5 5 2.5 
1028 1 6.5 5.5 2 
1029 2 7 5 2 
1030 1 7 5.5 2.5 
1031 1 7.5 5 2.5 
1032 2 7.5 5.5 2 
1033 1 8 5 2 
1034 1 8 5.5 2.5 
1035 1 8.5 5 2.5 
1036 1 8.5 5.5 2 
1037 1 9 5 2 
1038 2 9 5.5 2.5 
1039 1 9.5 5 2.5 
1040 1 9.5 5.5 2 
1041 2 0 6 2 
1042 1 0 6.5 2.5 
1043 2 0.5 6 2.5 
1044 1 0.5 6.5 2 
1045 1 1 6 2 
1046 1 1 6.5 2.5 
1047 1 1.5 6 2.5 
1048 1 1.5 6.5 2 
1049 1 2 6 2 
1050 1 2 6.5 2.5 
1051 1 2.5 6 2.5 
1052 1 2.5 6.5 2 
1053 1 3 6 2 
1054 1 3 6.5 2.5 
1055 1 3.5 6 2.5 
1056 2 3.5 6.5 2 
1057 1 4 6 2 
1058 2 4 6.5 2.5 
1059 1 4.5 6 2.5 
1060 1 4.5 6.5 2 
1061 1 5 6 2 
1062 1 5 6.5 2.5 
1063 1 5.5 6 2.5 
1064 1 5.5 6.5 2 
1065 1 6 6 2 
1066 1 6 6.5 2.5 
1067 1 6.5 6 2.5 
1068 1 6.5 6.5 2 
1069 1 7 6 2 
1070 1 7 6.5 2.5 
1071 1 7.5 6 2.5 
1072 1 7.5 6.5 2 
1073 1 8 6 2 
1074 1 8 6.5 2.5 
1075 1 8.5 6 2.5 
1076 1 8.5 6.5 2 
1077 1 9 6 2 
1078 1 9 6.5 2.5 
1079 1 9.5 6 2.5 
1080 1 9.5 6.5 2 
1081 1 0 7 2 
1082 1 0 7.5 2.5 
1083 1 0.5 7 2.5 
1084 1 0.5 7.5 2 
1085 1 1 7 2 
1086 1 1 7.5 2.5 
1087 1 1.5 7 2.5 
1088 1 1.5 7.5 2 
1089 1 2 7 2 
1090 1 2 7.5 2.5 
1091 1 2.5 7 2.5 
1092 1 2.5 7.5 2 
1093 1 3 7 2 
1094 1 3 7.5 2.5 
1095 1 3.5 7 2.5 
1096 1 3.5 7.5 2 
1097 1 4 7 2 
1098 1 4 7.5 2.5 
1099 1 4.5 7 2.5 
1100 1 4.5 7.5 2 
1101 1 5 7 2 
1102 1 5 7.5 2.5 
1103 1 5.5 7 2.5 
1104 1 5.5 7.5 2 
1105 1 6 7 2 
1106 1 6 7.5 2.5 
1107 1 6.5 7 2.5 
1108 1 6.5 7.5 2 
1109 1 7 7 2 
1110 1 7 7.5 2.5 
1111 1 7.5 7 2.5 
1112 1 7.5 7.5 2 
1113 1 8 7 2 
1114 1 8 7.5 2.5 
1115 1 8.5 7 2.5 
1116 1 8.5 7.5 2 
1117 1 9 7 2 
1118 1 9 7.5 2.5 
1119 1 9.5 7 2.5 
1120 1 9.5 7.5 2 
1121 1 0 8 2 
1122 1 0 8.5 2.5 
1123 1 0.5 8 2.5 
1124 2 0.5 8.5 2 
1125 1 1 8 2 
1126 2 1 8.5 2.5 
1127 1 1.5 8 2.5 
1128 2 1.5 8.5 2 
1129 1 2 8 2 
1130 1 2 8.5 2.5 
1131 1 2.5 8 2.5 
1132 2 2.5 8.5 2 
1133 1 3 8 2 
1134 2 3 8.5 2.5 
1135 2 3.5 8 2.5 
1136 1 3.5 8.5 2 
1137 1 4 8 2 
1138 1 4 8.5 2.5 
1139 1 4.5 8 2.5 
1140 1 4.5 8.5 2 
1141 1 5 8 2 
1142 1 5 8.5 2.5 
1143 1 5.5 8 2.5 
1144 1 5.5 8.5 2 
1145 1 6 8 2 
1146 2 6 8.5 2.5 
1147 1 6.5 8 2.5 
1148 1 6.5 8.5 2 
1149 1 7 8 2 
1150 1 7 8.5 2.5 
1151 1 7.5 8 2.5 
1152 1 7.5 8.5 2 
1153 2 8 8 2 
1154 1 8 8.5 2.5 
1155 1 8.5 8 2.5 
1156 1 8.5 8.5 2 
1157 1 9 8 2 
1158 2 9 8.5 2.5 
1159 1 9.5 8 2.5 
1160 1 9.5 8.5 2 
1161 1 0 9 2 
1162 1 0 9.5 2.5 
1163 1 0.5 9 2.5 
1164 1 0.5 9.5 2 
1165 1 1 9 2 
1166 1 1 9.5 2.5 
1167 1 1.5 9 2.5 
1168 1 1.5 9.5 2 
1169 1 2 9 2 
1170 1 2 9.5 2.5 
1171 1 2.5 9 2.5 
1172 1 2.5 9.5 2 
1173 1 3 9 2 
1174 1 3 9.5 2.5 
1175 1 3.5 9 2.5 
1176 1 3.5 9.5 2 
1177 1 4 9 2 
1178 1 4 9.5 2.5 
1179 1 4.5 9 2.5 
1180 1 4.5 9.5 2 
1181 1 5 9 2 
1182 1 5 9.5 2.5 
1183 1 5.5 9 2.5 
1184 1 5.5 9.5 2 
1185 1 6 9 2 
1186 1 6 9.5 2.5 
1187 2 6.5 9 2.5 
1188 1 6.5 9.5 2 
1189 2 7 9 2 
1190 2 7 9.5 2.5 
1191 1 7.5 9 2.5 
1192 1 7.5 9.5 2 
1193 1 8 9 2 
1194 1 8 9.5 2.5 
1195 1 8.5 9 2.5 
1196 1 8.5 9.5 2 
1197 1 9 9 2 
1198 1 9 9.5 2.5 
1199 1 9.5 9 2.5 
1200 1 9.5 9.5 2 
1201 1 0 0 3 
1202 1 0 0.5 3.5 
1203 2 0.5 0 3.5 
1204 1 0.5 0.5 3 
1205 1 1 0 3 
1206 1 1 0.5 3.5 
1207 1 1.5 0 3.5 
1208 1 1.5 0.5 3 
1209 1 2 0 3 
1210 1 2 0.5 3.5 
1211 1 2.5 0 3.5 
1212 1 2.5 0.5 3 
1213 1 3 0 3 
1214 1 3 0.5 3.5 
1215 1 3.5 0 3.5 
1216 1 3.5 0.5 3 
1217 1 4 0 3 
1218 1 4 0.5 3.5 
1219 1 4.5 0 3.5 
1220 1 4.5 0.5 3 
1221 1 5 0 3 
1222 1 5 0.5 3.5 
1223 1 5.5 0 3.5 
1224 1 5.5 0.5 3 
1225 1 6 0 3 
1226 1 6 0.5 3.5 
1227 1 6.5 0 3.5 
1228 1 6.5 0.5 3 
1229 1 7 0 3 
1230 1 7 0.5 3.5 
1231 1 7.5 0 3.5 
1232 2 7.5 0.5 3 
1233 1 8 0 3 
1234 1 8 0.5 3.5 
1235 1 8.5 0 3.5 
1236 1 8.5 0.5 3 
1237 1 9 0 3 
1238 1 9 0.5 3.5 
1239 1 9.5 0 3.5 
1240 1 9.5 0.5 3 
1241 2 0 1 3 
1242 1 0 1.5 3.5 
1243 2 0.5 1 3.5 
1244 1 0.5 1.5 3 
1245 2 1 1 3 
1246 1 1 1.5 3.5 
1247 2 1.5 1 3.5 
1248 1 1.5 1.5 3 
1249 1 2 1 3 
1250 1 2 1.5 3.5 
1251 2 2.5 1 3.5 
1252 2 2.5 1.5 3 
1253 1 3 1 3 
1254 1 3 1.5 3.5 
1255 1 3.5 1 3.5 
1256 1 3.5 1.5 3 
1257 1 4 1 3 
1258 1 4 1.5 3.5 
1259 1 4.5 1 3.5 
1260 1 4.5 1.5 3 
1261 1 5 1 3 
1262 1 5 1.5 3.5 
1263 1 5.5 1 3.5 
1264 1 5.5 1.5 3 
1265 1 6 1 3 
1266 1 6 1.5 3.5 
1267 1 6.5 1 3.5 
1268 1 6.5 1.5 3 
1269 1 7 1 3 
1270 2 7 1.5 3.5 
1271 2 7.5 1 3.5 
1272 2 7.5 1.5 3 
1273 1 8 1 3 
1274 1 8 1.5 3.5 
1275 1 8.5 1 3.5 
1276 2 8.5 1.5 3 
1277 1 9 1 3 
1278 1 9 1.5 3.5 
1279 1 9.5 1 3.5 
1280 1 9.5 1.5 3 
1281 1 0 2 3 
1282 2 0 2.5 3.5 
1283 2 0.5 2 3.5 
1284 2 0.5 2.5 3 
1285 2 1 2 3 
1286 1 1 2.5 3.5 
1287 1 1.5 2 3.5 
1288 1 1.5 2.5 3 
1289 1 2 2 3 
1290 1 2 2.5 3.5 
1291 1 2.5 2 3.5 
1292 2 2.5 2.5 3 
1293 1 3 2 3 
1294 1 3 2.5 3.5 
1295 1 3.5 2 3.5 
1296 1 3.5 2.5 3 
1297 2 4 2 3 
1298 2 4 2.5 3.5 
1299 1 4.5 2 3.5 
1300 1 4.5 2.5 3 
1301 1 5 2 3 
1302 1 5 2.5 3.5 
1303 1 5.5 2 3.5 
1304 1 5.5 2.5 3 
1305 1 6 2 3 
1306 1 6 2.5 3.5 
1307 1 6.5 2 3.5 
1308 1 6.5 2.5 3 
1309 1 7 2 3 
1310 1 7 2.5 3.5 
1311 1 7.5 2 3.5 
1312 2 7.5 2.5 3 
1313 2 8 2 3 
1314 1 8 2.5 3.5 
1315 1 8.5 2 3.5 
1316 2 8.5 2.5 3 
1317 1 9 2 3 
1318 1 9 2.5 3.5 
1319 2 9.5 2 3.5 
1320 2 9.5 2.5 3 
1321 1 0 3 3 
1322 1 0 3.5 3.5 
1323 1 0.5 3 3.5 
1324 1 0.5 3.5 3 
1325 2 1 3 3 
1326 1 1 3.5 3.5 
1327 1 1.5 3 3.5 
1328 1 1.5 3.5 3 
1329 1 2 3 3 
1330 1 2 3.5 3.5 
1331 1 2.5 3 3.5 
1332 1 2.5 3.5 3 
1333 1 3 3 3 
1334 1 3 3.5 3.5 
1335 2 3.5 3 3.5 
1336 1 3.5 3.5 3 
1337 1 4 3 3 
1338 1 4 3.5 3.5 
1339 1 4.5 3 3.5 
1340 1 4.5 3.5 3 
1341 1 5 3 3 
1342 1 5 3.5 3.5 
1343 1 5.5 3 3.5 
1344 1 5.5 3.5 3 
1345 1 6 3 3 
1346 1 6 3.5 3.5 
1347 1 6.5 3 3.5 
1348 1 6.5 3.5 3 
1349 2 7 3 3 
1350 1 7 3.5 3.5 
1351 1 7.5 3 3.5 
1352 1 7.5 3.5 3 
1353 1 8 3 3 
1354 1 8 3.5 3.5 
1355 1 8.5 3 3.5 
1356 1 8.5 3.5 3 
1357 1 9 3 3 
1358 1 9 3.5 3.5 
1359 2 9.5 3 3.5 
1360 2 9.5 3.5 3 
1361 1 0 4 3 
1362 1 0 4.5 3.5 
1363 1 0.5 4 3.5 
1364 1 0.5 4.5 3 
1365 1 1 4 3 
1366 1 1 4.5 3.5 
1367 1 1.5 4 3.5 
1368 2 1.5 4.5 3 
1369 2 2 4 3 
1370 1 2 4.5 3.5 
1371 1 2.5 4 3.5 
1372 1 2.5 4.5 3 
1373 2 3 4 3 
1374 2 3 4.5 3.5 
1375 1 3.5 4 3.5 
1376 1 3.5 4.5 3 
1377 1 4 4 3 
1378 1 4 4.5 3.5 
1379 1 4.5 4 3.5 
1380 1 4.5 4.5 3 
1381 2 5 4 3 
1382 1 5 4.5 3.5 
1383 1 5.5 4 3.5 
1384 1 5.5 4.5 3 
1385 1 6 4 3 
1386 1 6 4.5 3.5 
1387 1 6.5 4 3.5 
1388 1 6.5 4.5 3 
1389 1 7 4 3 
1390 1 7 4.5 3.5 
1391 1 7.5 4 3.5 
1392 1 7.5 4.5 3 
1393 2 8 4 3 
1394 1 8 4.5 3.5 
1395 1 8.5 4 3.5 
1396 1 8.5 4.5 3 
1397 1 9 4 3 
1398 1 9 4.5 3.5 
1399 1 9.5 4 3.5 
1400 1 9.5 4.5 3 
1401 1 0 5 3 
1402 1 0 5.5 3.5 
1403 1 0.5 5 3.5 
1404 1 0.5 5.5 3 
1405 1 1 5 3 
1406 1 1 5.5 3.5 
1407 1 1.5 5 3.5 
1408 1 1.5 5.5 3 
1409 1 2 5 3 
1410 1 2 5.5 3.5 
1411 2 2.5 5 3.5 
1412 1 2.5 5.5 3 
1413 1 3 5 3 
1414 1 3 5.5 3.5 
1415 1 3.5 5 3.5 
1416 2 3.5 5.5 3 
1417 1 4 5 3 
1418 1 4 5.5 3.5 
1419 2 4.5 5 3.5 
1420 2 4.5 5.5 3 
1421 1 5 5 3 
1422 1 5 5.5 3.5 
1423 2 5.5 5 3.5 
1424 2 5.5 5.5 3 
1425 1 6 5 3 
1426 2 6 5.5 3.5 
1427 1 6.5 5 3.5 
1428 1 6.5 5.5 3 
1429 1 7 5 3 
1430 1 7 5.5 3.5 
1431 1 7.5 5 3.5 
1432 2 7.5 5.5 3 
1433 1 8 5 3 
1434 2 8 5.5 3.5 
1435 1 8.5 5 3.5 
1436 1 8.5 5.5 3 
1437 1 9 5 3 
1438 1 9 5.5 3.5 
1439 1 9.5 5 3.5 
1440 1 9.5 5.5 3 
1441 1 0 6 3 
1442 1 0 6.5 3.5 
1443 1 0.5 6 3.5 
1444 1 0.5 6.5 3 
1445 1 1 6 3 
1446 1 1 6.5 3.5 
1447 1 1.5 6 3.5 
1448 1 1.5 6.5 3 
1449 1 2 6 3 
1450 2 2 6.5 3.5 
1451 1 2.5 6 3.5 
1452 1 2.5 6.5 3 
1453 2 3 6 3 
1454 1 3 6.5 3.5 
1455 1 3.5 6 3.5 
1456 2 3.5 6.5 3 
1457 1 4 6 3 
1458 1 4 6.5 3.5 
1459 1 4.5 6 3.5 
1460 1 4.5 6.5 3 
1461 1 5 6 3 
1462 1 5 6.5 3.5 
1463 1 5.5 6 3.5 
1464 1 5.5 6.5 3 
1465 1 6 6 3 
1466 1 6 6.5 3.5 
1467 1 6.5 6 3.5 
1468 1 6.5 6.5 3 
1469 1 7 6 3 
1470 1 7 6.5 3.5 
1471 1 7.5 6 3.5 
1472 1 7.5 6.5 3 
1473 1 8 6 3 
1474 1 8 6.5 3.5 
1475 1 8.5 6 3.5 
1476 1 8.5 6.5 3 
1477 2 9 6 3 
1478 1 9 6.5 3.5 
1479 1 9.5 6 3.5 
1480 1 9.5 6.5 3 
1481 1 0 7 3 
1482 2 0 7.5 3.5 
1483 1 0.5 7 3.5 
1484 1 0.5 7.5 3 
1485 1 1 7 3 
1486 1 1 7.5 3.5 
1487 1 1.5 7 3.5 
1488 1 1.5 7.5 3 
1489 2 2 7 3 
1490 1 2 7.5 3.5 
1491 2 2.5 7 3.5 
1492 1 2.5 7.5 3 
1493 1 3 7 3 
1494 1 3 7.5 3.5 
1495 2 3.5 7 3.5 
1496 1 3.5 7.5 3 
1497 1 4 7 3 
1498 2 4 7.5 3.5 
1499 2 4.5 7 3.5 
1500 1 4.5 7.5 3 
1501 1 5 7 3 
1502 1 5 7.5 3.5 
1503 1 5.5 7 3.5 
1504 1 5.5 7.5 3 
1505 2 6 7 3 
1506 2 6 7.5 3.5 
1507 1 6.5 7 3.5 
1508 1 6.5 7.5 3 
1509 1 7 7 3 
1510 2 7 7.5 3.5 
1511 1 7.5 7 3.5 
1512 1 7.5 7.5 3 
1513 1 8 7 3 
1514 1 8 7.5 3.5 
1515 1 8.5 7 3.5 
1516 1 8.5 7.5 3 
1517 1 9 7 3 
1518 1 9 7.5 3.5 
1519 2 9.5 7 3.5 
1520 2 9.5 7.5 3 
1521 1 0 8 3 
1522 1 0 8.5 3.5 
1523 1 0.5 8 3.5 
1524 1 0.5 8.5 3 
1525 1 1 8 3 
1526 1 1 8.5 3.5 
1527 1 1.5 8 3.5 
1528 1 1.5 8.5 3 
1529 1 2 8 3 
1530 1 2 8.5 3.5 
1531 2 2.5 8 3.5 
1532 2 2.5 8.5 3 
1533 1 3 8 3 
1534 1 3 8.5 3.5 
1535 1 3.5 8 3.5 
1536 1 3.5 8.5 3 
1537 1 4 8 3 
1538 1 4 8.5 3.5 
1539 1 4.5 8 3.5 
1540 1 4.5 8.5 3 
1541 1 5 8 3 
1542 2 5 8.5 3.5 
1543 1 5.5 8 3.5 
1544 1 5.5 8.5 3 
1545 1 6 8 3 
1546 1 6 8.5 3.5 
1547 1 6.5 8 3.5 
1548 2 6.5 8.5 3 
1549 2 7 8 3 
1550 1 7 8.5 3.5 
1551 1 7.5 8 3.5 
1552 1 7.5 8.5 3 
1553 1 8 8 3 
1554 2 8 8.5 3.5 
1555 1 8.5 8 3.5 
1556 1 8.5 8.5 3 
1557 1 9 8 3 
1558 1 9 8.5 3.5 
1559 1 9.5 8 3.5 
1560 1 9.5 8.5 3 
1561 1 0 9 3 
1562 1 0 9.5 3.5 
1563 1 0.5 9 3.5 
1564 1 0.5 9.5 3 
1565 1 1 9 3 
1566 2 1 9.5 3.5 
1567 2 1.5 9 3.5 
1568 1 1.5 9.5 3 
1569 1 2 9 3 
1570 2 2 9.5 3.5 
1571 1 2.5 9 3.5 
1572 1 2.5 9.5 3 
1573 2 3 9 3 
1574 1 3 9.5 3.5 
1575 1 3.5 9 3.5 
1576 1 3.5 9.5 3 
1577 1 4 9 3 
1578 1 4 9.5 3.5 
1579 2 4.5 9 3.5 
1580 1 4.5 9.5 3 
1581 1 5 9 3 
1582 1 5 9.5 3.5 
1583 1 5.5 9 3.5 
1584 1 5.5 9.5 3 
1585 2 6 9 3 
1586 1 6 9.5 3.5 
1587 2 6.5 9 3.5 
1588 2 6.5 9.5 3 
1589 1 7 9 3 
1590 1 7 9.5 3.5 
1591 1 7.5 9 3.5 
1592 1 7.5 9.5 3 
1593 1 8 9 3 
1594 1 8 9.5 3.5 
1595 2 8.5 9 3.5 
1596 1 8.5 9.5 3 
1597 1 9 9 3 
1598 1 9 9.5 3.5 
1599 1 9.5 9 3.5 
1600 1 9.5 9.5 3 
1601 1 0 0 4 
1602 2 0 0.5 4.5 
1603 1 0.5 0 4.5 
1604 1 0.5 0.5 4 
1605 1 1 0 4 
1606 1 1 0.5 4.5 
1607 1 1.5 0 4.5 
1608 1 1.5 0.5 4 
1609 1 2 0 4 
1610 1 2 0.5 4.5 
1611 1 2.5 0 4.5 
1612 1 2.5 0.5 4 
1613 2 3 0 4 
1614 1 3 0.5 4.5 
1615 1 3.5 0 4.5 
1616 1 3.5 0.5 4 
1617 1 4 0 4 
1618 2 4 0.5 4.5 
1619 1 4.5 0 4.5 
1620 2 4.5 0.5 4 
1621 1 5 0 4 
1622 1 5 0.5 4.5 
1623 1 5.5 0 4.5 
1624 1 5.5 0.5 4 
1625 2 6 0 4 
1626 1 6 0.5 4.5 
1627 1 6.5 0 4.5 
1628 2 6.5 0.5 4 
1629 1 7 0 4 
1630 1 7 0.5 4.5 
1631 1 7.5 0 4.5 
1632 2 7.5 0.5 4 
1633 1 8 0 4 
1634 1 8 0.5 4.5 
1635 1 8.5 0 4.5 
1636 1 8.5 0.5 4 
1637 1 9 0 4 
1638 2 9 0.5 4.5 
1639 2 9.5 0 4.5 
1640 1 9.5 0.5 4 
1641 2 0 1 4 
1642 1 0 1.5 4.5 
1643 1 0.5 1 4.5 
1644 1 0.5 1.5 4 
1645 1 1 1 4 
1646 2 1 1.5 4.5 
1647 1 1.5 1 4.5 
1648 1 1.5 1.5 4 
1649 2 2 1 4 
1650 1 2 1.5 4.5 
1651 1 2.5 1 4.5 
1652 1 2.5 1.5 4 
1653 1 3 1 4 
1654 1 3 1.5 4.5 
1655 1 3.5 1 4.5 
1656 1 3.5 1.5 4 
1657 1 4 1 4 
1658 1 4 1.5 4.5 
1659 1 4.5 1 4.5 
1660 1 4.5 1.5 4 
1661 1 5 1 4 
1662 1 5 1.5 4.5 
1663 1 5.5 1 4.5 
1664 1 5.5 1.5 4 
1665 1 6 1 4 
1666 1 6 1.5 4.5 
1667 1 6.5 1 4.5 
1668 2 6.5 1.5 4 
1669 1 7 1 4 
1670 1 7 1.5 4.5 
1671 1 7.5 1 4.5 
1672 1 7.5 1.5 4 
1673 1 8 1 4 
1674 1 8 1.5 4.5 
1675 1 8.5 1 4.5 
1676 1 8.5 1.5 4 
1677 1 9 1 4 
1678 2 9 1.5 4.5 
1679 1 9.5 1 4.5 
1680 1 9.5 1.5 4 
1681 1 0 2 4 
1682 1 0 2.5 4.5 
1683 1 0.5 2 4.5 
1684 2 0.5 2.5 4 
1685 1 1 2 4 
1686 1 1 2.5 4.5 
1687 1 1.5 2 4.5 
1688 1 1.5 2.5 4 
1689 1 2 2 4 
1690 2 2 2.5 4.5 
1691 1 2.5 2 4.5 
1692 1 2.5 2.5 4 
1693 1 3 2 4 
1694 1 3 2.5 4.5 
1695 1 3.5 2 4.5 
1696 1 3.5 2.5 4 
1697 1 4 2 4 
1698 1 4 2.5 4.5 
1699 1 4.5 2 4.5 
1700 2 4.5 2.5 4 
1701 1 5 2 4 
1702 1 5 2.5 4.5 
1703 1 5.5 2 4.5 
1704 1 5.5 2.5 4 
1705 1 6 2 4 
1706 1 6 2.5 4.5 
1707 1 6.5 2 4.5 
1708 1 6.5 2.5 4 
1709 1 7 2 4 
1710 1 7 2.5 4.5 
1711 1 7.5 2 4.5 
1712 1 7.5 2.5 4 
1713 1 8 2 4 
1714 2 8 2.5 4.5 
1715 1 8.5 2 4.5 
1716 1 8.5 2.5 4 
1717 2 9 2 4 
1718 2 9 2.5 4.5 
1719 1 9.5 2 4.5 
1720 1 9.5 2.5 4 
1721 1 0 3 4 
1722 1 0 3.5 4.5 
1723 1 0.5 3 4.5 
1724 1 0.5 3.5 4 
1725 1 1 3 4 
1726 1 1 3.5 4.5 
1727 1 1.5 3 4.5 
1728 1 1.5 3.5 4 
1729 1 2 3 4 
1730 1 2 3.5 4.5 
1731 1 2.5 3 4.5 
1732 1 2.5 3.5 4 
1733 1 3 3 4 
1734 1 3 3.5 4.5 
1735 2 3.5 3 4.5 
1736 2 3.5 3.5 4 
1737 1 4 3 4 
1738 1 4 3.5 4.5 
1739 1 4.5 3 4.5 
1740 1 4.5 3.5 4 
1741 1 5 3 4 
1742 1 5 3.5 4.5 
1743 1 5.5 3 4.5 
1744 1 5.5 3.5 4 
1745 2 6 3 4 
1746 1 6 3.5 4.5 
1747 1 6.5 3 4.5 
1748 1 6.5 3.5 4 
1749 1 7 3 4 
1750 1 7 3.5 4.5 
1751 1 7.5 3 4.5 
1752 1 7.5 3.5 4 
1753 1 8 3 4 
1754 1 8 3.5 4.5 
1755 2 8.5 3 4.5 
1756 1 8.5 3.5 4 
1757 1 9 3 4 
1758 1 9 3.5 4.5 
1759 1 9.5 3 4.5 
1760 1 9.5 3.5 4 
1761 1 0 4 4 
1762 1 0 4.5 4.5 
1763 1 0.5 4 4.5 
1764 1 0.5 4.5 4 
1765 1 1 4 4 
1766 1 1 4.5 4.5 
1767 1 1.5 4 4.5 
1768 1 1.5 4.5 4 
1769 2 2 4 4 
1770 1 2 4.5 4.5 
1771 2 2.5 4 4.5 
1772 1 2.5 4.5 4 
1773 1 3 4 4 
1774 1 3 4.5 4.5 
1775 1 3.5 4 4.5 
1776 2 3.5 4.5 4 
1777 1 4 4 4 
1778 1 4 4.5 4.5 
1779 1 4.5 4 4.5 
1780 1 4.5 4.5 4 
1781 2 5 4 4 
1782 2 5 4.5 4.5 
1783 1 5.5 4 4.5 
1784 1 5.5 4.5 4 
1785 2 6 4 4 
1786 2 6 4.5 4.5 
1787 2 6.5 4 4.5 
1788 1 6.5 4.5 4 
1789 1 7 4 4 
1790 1 7 4.5 4.5 
1791 1 7.5 4 4.5 
1792 1 7.5 4.5 4 
1793 1 8 4 4 
1794 1 8 4.5 4.5 
1795 1 8.5 4 4.5 
1796 1 8.5 4.5 4 
1797 1 9 4 4 
1798 2 9 4.5 4.5 
1799 1 9.5 4 4.5 
1800 1 9.5 4.5 4 
1801 2 0 5 4 
1802 1 0 5.5 4.5 
1803 2 0.5 5 4.5 
1804 1 0.5 5.5 4 
1805 1 1 5 4 
1806 1 1 5.5 4.5 
1807 1 1.5 5 4.5 
1808 1 1.5 5.5 4 
1809 2 2 5 4 
1810 1 2 5.5 4.5 
1811 1 2.5 5 4.5 
1812 1 2.5 5.5 4 
1813 1 3 5 4 
1814 2 3 5.5 4.5 
1815 2 3.5 5 4.5 
1816 1 3.5 5.5 4 
1817 1 4 5 4 
1818 2 4 5.5 4.5 
1819 2 4.5 5 4.5 
1820 2 4.5 5.5 4 
1821 1 5 5 4 
1822 1 5 5.5 4.5 
1823 1 5.5 5 4.5 
1824 2 5.5 5.5 4 
1825 1 6 5 4 
1826 1 6 5.5 4.5 
1827 1 6.5 5 4.5 
1828 1 6.5 5.5 4 
1829 1 7 5 4 
1830 2 7 5.5 4.5 
1831 1 7.5 5 4.5 
1832 1 7.5 5.5 4 
1833 1 8 5 4 
1834 1 8 5.5 4.5 
1835 1 8.5 5 4.5 
1836 2 8.5 5.5 4 
1837 1 9 5 4 
1838 1 9 5.5 4.5 
1839 1 9.5 5 4.5 
1840 2 9.5 5.5 4 
1841 1 0 6 4 
1842 1 0 6.5 4.5 
1843 1 0.5 6 4.5 
1844 1 0.5 6.5 4 
1845 1 1 6 4 
1846 2 1 6.5 4.5 
1847 1 1.5 6 4.5 
1848 2 1.5 6.5 4 
1849 1 2 6 4 
1850 1 2 6.5 4.5 
1851 1 2.5 6 4.5 
1852 1 2.5 6.5 4 
1853 1 3 6 4 
1854 1 3 6.5 4.5 
1855 1 3.5 6 4.5 
1856 2 3.5 6.5 4 
1857 1 4 6 4 
1858 1 4 6.5 4.5 
1859 1 4.5 6 4.5 
1860 1 4.5 6.5 4 
1861 1 5 6 4 
1862 2 5 6.5 4.5 
1863 1 5.5 6 4.5 
1864 1 5.5 6.5 4 
1865 1 6 6 4 
1866 1 6 6.5 4.5 
1867 2 6.5 6 4.5 
1868 2 6.5 6.5 4 
1869 1 7 6 4 
1870 2 7 6.5 4.5 
1871 1 7.5 6 4.5 
1872 1 7.5 6.5 4 
1873 1 8 6 4 
1874 2 8 6.5 4.5 
1875 1 8.5 6 4.5 
1876 1 8.5 6.5 4 
1877 1 9 6 4 
1878 1 9 6.5 4.5 
1879 1 9.5 6 4.5 
1880 2 9.5 6.5 4 
1881 1 0 7 4 
1882 1 0 7.5 4.5 
1883 2 0.5 7 4.5 
1884 2 0.5 7.5 4 
1885 1 1 7 4 
1886 1 1 7.5 4.5 
1887 1 1.5 7 4.5 
1888 1 1.5 7.5 4 
1889 1 2 7 4 
1890 2 2 7.5 4.5 
1891 2 2.5 7 4.5 
1892 2 2.5 7.5 4 
1893 1 3 7 4 
1894 1 3 7.5 4.5 
1895 1 3.5 7 4.5 
1896 1 3.5 7.5 4 
1897 2 4 7 4 
1898 1 4 7.5 4.5 
1899 1 4.5 7 4.5 
1900 1 4.5 7.5 4 
1901 1 5 7 4 
1902 1 5 7.5 4.5 
1903 2 5.5 7 4.5 
1904 1 5.5 7.5 4 
1905 1 6 7 4 
1906 1 6 7.5 4.5 
1907 1 6.5 7 4.5 
1908 1 6.5 7.5 4 
1909 1 7 7 4 
1910 1 7 7.5 4.5 
1911 1 7.5 7 4.5 
1912 2 7.5 7.5 4 
1913 1 8 7 4 
1914 1 8 7.5 4.5 
1915 1 8.5 7 4.5 
1916 2 8.5 7.5 4 
1917 1 9 7 4 
1918 1 9 7.5 4.5 
1919 1 9.5 7 4.5 
1920 2 9.5 7.5 4 
1921 1 0 8 4 
1922 1 0 8.5 4.5 
1923 1 0.5 8 4.5 
1924 2 0.5 8.5 4 
1925 1 1 8 4 
1926 1 1 8.5 4.5 
1927 1 1.5 8 4.5 
1928 1 1.5 8.5 4 
1929 1 2 8 4 
1930 1 2 8.5 4.5 
1931 2 2.5 8 4.5 
1932 2 2.5 8.5 4 
1933 1 3 8 4 
1934 1 3 8.5 4.5 
1935 1 3.5 8 4.5 
1936 1 3.5 8.5 4 
1937 1 4 8 4 
1938 1 4 8.5 4.5 
1939 1 4.5 8 4.5 
1940 1 4.5 8.5 4 
1941 1 5 8 4 
1942 1 5 8.5 4.5 
1943 1 5.5 8 4.5 
1944 1 5.5 8.5 4 
1945 1 6 8 4 
1946 1 6 8.5 4.5 
1947 1 6.5 8 4.5 
1948 1 6.5 8.5 4 
1949 1 7 8 4 
1950 1 7 8.5 4.5 
1951 1 7.5 8 4.5 
1952 1 7.5 8.5 4 
1953 1 8 8 4 
1954 1 8 8.5 4.5 
1955 1 8.5 8 4.5 
1956 1 8.5 8.5 4 
1957 1 9 8 4 
1958 2 9 8.5 4.5 
1959 2 9.5 8 4.5 
1960 1 9.5 8.5 4 
1961 1 0 9 4 
1962 2 0 9.5 4.5 
1963 2 0.5 9 4.5 
1964 1 0.5 9.5 4 
1965 1 1 9 4 
1966 1 1 9.5 4.5 
1967 1 1.5 9 4.5 
1968 1 1.5 9.5 4 
1969 1 2 9 4 
1970 1 2 9.5 4.5 
1971 1 2.5 9 4.5 
1972 1 2.5 9.5 4 
1973 1 3 9 4 
1974 1 3 9.5 4.5 
1975 1 3.5 9 4.5 
1976 1 3.5 9.5 4 
1977 2 4 9 4 
1978 1 4 9.5 4.5 
1979 2 4.5 9 4.5 
1980 1 4.5 9.5 4 
1981 2 5 9 4 
1982 1 5 9.5 4.5 
1983 1 5.5 9 4.5 
1984 1 5.5 9.5 4 
1985 1 6 9 4 
1986 2 6 9.5 4.5 
1987 1 6.5 9 4.5 
1988 2 6.5 9.5 4 
1989 1 7 9 4 
1990 1 7 9.5 4.5 
1991 1 7.5 9 4.5 
1992 1 7.5 9.5 4 
1993 1 8 9 4 
1994 1 8 9.5 4.5 
1995 1 8.5 9 4.5 
1996 1 8.5 9.5 4 
1997 1 9 9 4 
1998 2 9 9.5 4.5 
1999 1 9.5 9 4.5 
2000 1 9.5 9.5 4 
2001 1 0 0 5 
2002 1 0 0.5 5.5 
2003 1 0.5 0 5.5 
2004 1 0.5 0.5 5 
2005 2 1 0 5 
2006 1 1 0.5 5.5 
2007 1 1.5 0 5.5 
2008 1 1.5 0.5 5 
2009 1 2 0 5 
2010 1 2 0.5 5.5 
2011 1 2.5 0 5.5 
2012 2 2.5 0.5 5 
2013 1 3 0 5 
2014 1 3 0.5 5.5 
2015 2 3.5 0 5.5 
2016 2 3.5 0.5 5 
2017 1 4 0 5 
2018 1 4 0.5 5.5 
2019 2 4.5 0 5.5 
2020 1 4.5 0.5 5 
2021 1 5 0 5 
2022 1 5 0.5 5.5 
2023 2 5.5 0 5.5 
2024 1 5.5 0.5 5 
2025 2 6 0 5 
2026 1 6 0.5 5.5 
2027 1 6.5 0 5.5 
2028 1 6.5 0.5 5 
2029 1 7 0 5 
2030 1 7 0.5 5.5 
2031 1 7.5 0 5.5 
2032 1 7.5 0.5 5 
2033 1 8 0 5 
2034 1 8 0.5 5.5 
2035 1 8.5 0 5.5 
2036 1 8.5 0.5 5 
2037 2 9 0 5 
2038 2 9 0.5 5.5 
2039 1 9.5 0 5.5 
2040 1 9.5 0.5 5 
2041 1 0 1 5 
2042 1 0 1.5 5.5 
2043 1 0.5 1 5.5 
2044 2 0.5 1.5 5 
2045 1 1 1 5 
2046 1 1 1.5 5.5 
2047 2 1.5 1 5.5 
2048 1 1.5 1.5 5 
2049 2 2 1 5 
2050 1 2 1.5 5.5 
2051 1 2.5 1 5.5 
2052 1 2.5 1.5 5 
2053 1 3 1 5 
2054 2 3 1.5 5.5 
2055 1 3.5 1 5.5 
2056 1 3.5 1.5 5 
2057 1 4 1 5 
2058 1 4 1.5 5.5 
2059 1 4.5 1 5.5 
2060 2 4.5 1.5 5 
2061 1 5 1 5 
2062 2 5 1.5 5.5 
2063 2 5.5 1 5.5 
2064 1 5.5 1.5 5 
2065 1 6 1 5 
2066 2 6 1.5 5.5 
2067 1 6.5 1 5.5 
2068 2 6.5 1.5 5 
2069 1 7 1 5 
2070 1 7 1.5 5.5 
2071 2 7.5 1 5.5 
2072 1 7.5 1.5 5 
2073 1 8 1 5 
2074 2 8 1.5 5.5 
2075 1 8.5 1 5.5 
2076 1 8.5 1.5 5 
2077 2 9 1 5 
2078 2 9 1.5 5.5 
2079 1 9.5 1 5.5 
2080 2 9.5 1.5 5 
2081 1 0 2 5 
2082 2 0 2.5 5.5 
2083 1 0.5 2 5.5 
2084 1 0.5 2.5 5 
2085 1 1 2 5 
2086 1 1 2.5 5.5 
2087 1 1.5 2 5.5 
2088 2 1.5 2.5 5 
2089 1 2 2 5 
2090 1 2 2.5 5.5 
2091 1 2.5 2 5.5 
2092 2 2.5 2.5 5 
2093 1 3 2 5 
2094 1 3 2.5 5.5 
2095 1 3.5 2 5.5 
2096 1 3.5 2.5 5 
2097 1 4 2 5 
2098 1 4 2.5 5.5 
2099 1 4.5 2 5.5 
2100 1 4.5 2.5 5 
2101 1 5 2 5 
2102 1 5 2.5 5.5 
2103 1 5.5 2 5.5 
2104 1 5.5 2.5 5 
2105 1 6 2 5 
2106 1 6 2.5 5.5 
2107 1 6.5 2 5.5 
2108 2 6.5 2.5 5 
2109 1 7 2 5 
2110 1 7 2.5 5.5 
2111 1 7.5 2 5.5 
2112 2 7.5 2.5 5 
2113 1 8 2 5 
2114 1 8 2.5 5.5 
2115 2 8.5 2 5.5 
2116 1 8.5 2.5 5 
2117 2 9 2 5 
2118 1 9 2.5 5.5 
2119 1 9.5 2 5.5 
2120 1 9.5 2.5 5 
2121 2 0 3 5 
2122 1 0 3.5 5.5 
2123 2 0.5 3 5.5 
2124 1 0.5 3.5 5 
2125 1 1 3 5 
2126 1 1 3.5 5.5 
2127 1 1.5 3 5.5 
2128 2 1.5 3.5 5 
2129 2 2 3 5 
2130 1 2 3.5 5.5 
2131 2 2.5 3 5.5 
2132 1 2.5 3.5 5 
2133 1 3 3 5 
2134 2 3 3.5 5.5 
2135 1 3.5 3 5.5 
2136 1 3.5 3.5 5 
2137 2 4 3 5 
2138 1 4 3.5 5.5 
2139 1 4.5 3 5.5 
2140 1 4.5 3.5 5 
2141 1 5 3 5 
2142 1 5 3.5 5.5 
2143 1 5.5 3 5.5 
2144 1 5.5 3.5 5 
2145 2 6 3 5 
2146 2 6 3.5 5.5 
2147 1 6.5 3 5.5 
2148 1 6.5 3.5 5 
2149 1 7 3 5 
2150 1 7 3.5 5.5 
2151 1 7.5 3 5.5 
2152 1 7.5 3.5 5 
2153 2 8 3 5 
2154 1 8 3.5 5.5 
2155 1 8.5 3 5.5 
2156 1 8.5 3.5 5 
2157 1 9 3 5 
2158 1 9 3.5 5.5 
2159 1 9.5 3 5.5 
2160 2 9.5 3.5 5 
2161 1 0 4 5 
2162 1 0 4.5 5.5 
2163 1 0.5 4 5.5 
2164 1 0.5 4.5 5 
2165 1 1 4 5 
2166 2 1 4.5 5.5 
2167 1 1.5 4 5.5 
2168 2 1.5 4.5 5 
2169 1 2 4 5 
2170 1 2 4.5 5.5 
2171 1 2.5 4 5.5 
2172 1 2.5 4.5 5 
2173 2 3 4 5 
2174 1 3 4.5 5.5 
2175 2 3.5 4 5.5 
2176 2 3.5 4.5 5 
2177 1 4 4 5 
2178 1 4 4.5 5.5 
2179 1 4.5 4 5.5 
2180 1 4.5 4.5 5 
2181 1 5 4 5 
2182 1 5 4.5 5.5 
2183 1 5.5 4 5.5 
2184 1 5.5 4.5 5 
2185 1 6 4 5 
2186 1 6 4.5 5.5 
2187 1 6.5 4 5.5 
2188 2 6.5 4.5 5 
2189 1 7 4 5 
2190 1 7 4.5 5.5 
2191 1 7.5 4 5.5 
2192 1 7.5 4.5 5 
2193 2 8 4 5 
2194 1 8 4.5 5.5 
2195 1 8.5 4 5.5 
2196 2 8.5 4.5 5 
2197 2 9 4 5 
2198 1 9 4.5 5.5 
2199 1 9.5 4 5.5 
2200 1 9.5 4.5 5 
2201 1 0 5 5 
2202 1 0 5.5 5.5 
2203 1 0.5 5 5.5 
2204 2 0.5 5.5 5 
2205 1 1 5 5 
2206 1 1 5.5 5.5 
2207 1 1.5 5 5.5 
2208 1 1.5 5.5 5 
2209 1 2 5 5 
2210 1 2 5.5 5.5 
2211 1 2.5 5 5.5 
2212 1 2.5 5.5 5 
2213 1 3 5 5 
2214 1 3 5.5 5.5 
2215 2 3.5 5 5.5 
2216 2 3.5 5.5 5 
2217 1 4 5 5 
2218 2 4 5.5 5.5 
2219 1 4.5 5 5.5 
2220 1 4.5 5.5 5 
2221 2 5 5 5 
2222 1 5 5.5 5.5 
2223 1 5.5 5 5.5 
2224 1 5.5 5.5 5 
2225 1 6 5 5 
2226 1 6 5.5 5.5 
2227 1 6.5 5 5.5 
2228 2 6.5 5.5 5 
2229 2 7 5 5 
2230 1 7 5.5 5.5 
2231 2 7.5 5 5.5 
2232 1 7.5 5.5 5 
2233 1 8 5 5 
2234 2 8 5.5 5.5 
2235 1 8.5 5 5.5 
2236 1 8.5 5.5 5 
2237 1 9 5 5 
2238 1 9 5.5 5.5 
2239 1 9.5 5 5.5 
2240 1 9.5 5.5 5 
2241 1 0 6 5 
2242 1 0 6.5 5.5 
2243 1 0.5 6 5.5 
2244 1 0.5 6.5 5 
2245 2 1 6 5 
2246 2 1 6.5 5.5 
2247 1 1.5 6 5.5 
2248 2 1.5 6.5 5 
2249 2 2 6 5 
2250 1 2 6.5 5.5 
2251 1 2.5 6 5.5 
2252 2 2.5 6.5 5 
2253 2 3 6 5 
2254 1 3 6.5 5.5 
2255 2 3.5 6 5.5 
2256 1 3.5 6.5 5 
2257 2 4 6 5 
2258 2 4 6.5 5.5 
2259 2 4.5 6 5.5 
2260 2 4.5 6.5 5 
2261 1 5 6 5 
2262 1 5 6.5 5.5 
2263 1 5.5 6 5.5 
2264 1 5.5 6.5 5 
2265 1 6 6 5 
2266 2 6 6.5 5.5 
2267 1 6.5 6 5.5 
2268 2 6.5 6.5 5 
2269 2 7 6 5 
2270 2 7 6.5 5.5 
2271 2 7.5 6 5.5 
2272 2 7.5 6.5 5 
2273 2 8 6 5 
2274 2 8 6.5 5.5 
2275 1 8.5 6 5.5 
2276 2 8.5 6.5 5 
2277 1 9 6 5 
2278 1 9 6.5 5.5 
2279 1 9.5 6 5.5 
2280 1 9.5 6.5 5 
2281 1 0 7 5 
2282 1 0 7.5 5.5 
2283 2 0.5 7 5.5 
2284 1 0.5 7.5 5 
2285 1 1 7 5 
2286 2 1 7.5 5.5 
2287 1 1.5 7 5.5 
2288 1 1.5 7.5 5 
2289 1 2 7 5 
2290 1 2 7.5 5.5 
2291 2 2.5 7 5.5 
2292 2 2.5 7.5 5 
2293 1 3 7 5 
2294 1 3 7.5 5.5 
2295 1 3.5 7 5.5 
2296 1 3.5 7.5 5 
2297 1 4 7 5 
2298 1 4 7.5 5.5 
2299 1 4.5 7 5.5 
2300 1 4.5 7.5 5 
2301 1 5 7 5 
2302 1 5 7.5 5.5 
2303 2 5.5 7 5.5 
2304 1 5.5 7.5 5 
2305 2 6 7 5 
2306 1 6 7.5 5.5 
2307 1 6.5 7 5.5 
2308 1 6.5 7.5 5 
2309 2 7 7 5 
2310 1 7 7.5 5.5 
2311 1 7.5 7 5.5 
2312 2 7.5 7.5 5 
2313 1 8 7 5 
2314 1 8 7.5 5.5 
2315 1 8.5 7 5.5 
2316 1 8.5 7.5 5 
2317 1 9 7 5 
2318 1 9 7.5 5.5 
2319 1 9.5 7 5.5 
2320 1 9.5 7.5 5 
2321 1 0 8 5 
2322 1 0 8.5 5.5 
2323 1 0.5 8 5.5 
2324 1 0.5 8.5 5 
2325 1 1 8 5 
2326 2 1 8.5 5.5 
2327 1 1.5 8 5.5 
2328 1 1.5 8.5 5 
2329 1 2 8 5 
2330 1 2 8.5 5.5 
2331 1 2.5 8 5.5 
2332 2 2.5 8.5 5 
2333 1 3 8 5 
2334 1 3 8.5 5.5 
2335 1 3.5 8 5.5 
2336 1 3.5 8.5 5 
2337 1 4 8 5 
2338 1 4 8.5 5.5 
2339 1 4.5 8 5.5 
2340 1 4.5 8.5 5 
2341 1 5 8 5 
2342 1 5 8.5 5.5 
2343 2 5.5 8 5.5 
2344 1 5.5 8.5 5 
2345 1 6 8 5 
2346 1 6 8.5 5.5 
2347 1 6.5 8 5.5 
2348 1 6.5 8.5 5 
2349 1 7 8 5 
2350 2 7 8.5 5.5 
2351 2 7.5 8 5.5 
2352 2 7.5 8.5 5 
2353 1 8 8 5 
2354 1 8 8.5 5.5 
2355 1 8.5 8 5.5 
2356 1 8.5 8.5 5 
2357 1 9 8 5 
2358 1 9 8.5 5.5 
2359 2 9.5 8 5.5 
2360 1 9.5 8.5 5 
2361 1 0 9 5 
2362 1 0 9.5 5.5 
2363 1 0.5 9 5.5 
2364 1 0.5 9.5 5 
2365 1 1 9 5 
2366 1 1 9.5 5.5 
2367 1 1.5 9 5.5 
2368 2 1.5 9.5 5 
2369 1 2 9 5 
2370 1 2 9.5 5.5 
2371 1 2.5 9 5.5 
2372 1 2.5 9.5 5 
2373 2 3 9 5 
2374 1 3 9.5 5.5 
2375 1 3.5 9 5.5 
2376 2 3.5 9.5 5 
2377 1 4 9 5 
2378 1 4 9.5 5.5 
2379 2 4.5 9 5.5 
2380 1 4.5 9.5 5 
2381 1 5 9 5 
2382 1 5 9.5 5.5 
2383 1 5.5 9 5.5 
2384 1 5.5 9.5 5 
2385 1 6 9 5 
2386 2 6 9.5 5.5 
2387 2 6.5 9 5.5 
2388 1 6.5 9.5 5 
2389 1 7 9 5 
2390 1 7 9.5 5.5 
2391 1 7.5 9 5.5 
2392 1 7.5 9.5 5 
2393 1 8 9 5 
2394 1 8 9.5 5.5 
2395 1 8.5 9 5.5 
2396 1 8.5 9.5 5 
2397 2 9 9 5 
2398 1 9 9.5 5.5 
2399 1 9.5 9 5.5 
2400 1 9.5 9.5 5 
2401 1 0 0 6 
2402 2 0 0.5 6.5 
2403 1 0.5 0 6.5 
2404 1 0.5 0.5 6 
2405 1 1 0 6 
2406 1 1 0.5 6.5 
2407 1 1.5 0 6.5 
2408 2 1.5 0.5 6 
2409 1 2 0 6 
2410 1 2 0.5 6.5 
2411 2 2.5 0 6.5 
2412 1 2.5 0.5 6 
2413 2 3 0 6 
2414 1 3 0.5 6.5 
2415 2 3.5 0 6.5 
2416 1 3.5 0.5 6 
2417 1 4 0 6 
2418 2 4 0.5 6.5 
2419 2 4.5 0 6.5 
2420 1 4.5 0.5 6 
2421 2 5 0 6 
2422 1 5 0.5 6.5 
2423 1 5.5 0 6.5 
2424 1 5.5 0.5 6 
2425 2 6 0 6 
2426 1 6 0.5 6.5 
2427 1 6.5 0 6.5 
2428 2 6.5 0.5 6 
2429 2 7 0 6 
2430 2 7 0.5 6.5 
2431 1 7.5 0 6.5 
2432 2 7.5 0.5 6 
2433 2 8 0 6 
2434 1 8 0.5 6.5 
2435 1 8.5 0 6.5 
2436 1 8.5 0.5 6 
2437 1 9 0 6 
2438 1 9 0.5 6.5 
2439 2 9.5 0 6.5 
2440 1 9.5 0.5 6 
2441 1 0 1 6 
2442 2 0 1.5 6.5 
2443 1 0.5 1 6.5 
2444 1 0.5 1.5 6 
2445 2 1 1 6 
2446 1 1 1.5 6.5 
2447 1 1.5 1 6.5 
2448 2 1.5 1.5 6 
2449 1 2 1 6 
2450 1 2 1.5 6.5 
2451 1 2.5 1 6.5 
2452 2 2.5 1.5 6 
2453 2 3 1 6 
2454 1 3 1.5 6.5 
2455 1 3.5 1 6.5 
2456 2 3.5 1.5 6 
2457 1 4 1 6 
2458 2 4 1.5 6.5 
2459 1 4.5 1 6.5 
2460 1 4.5 1.5 6 
2461 1 5 1 6 
2462 2 5 1.5 6.5 
2463 2 5.5 1 6.5 
2464 1 5.5 1.5 6 
2465 1 6 1 6 
2466 1 6 1.5 6.5 
2467 2 6.5 1 6.5 
2468 2 6.5 1.5 6 
2469 1 7 1 6 
2470 1 7 1.5 6.5 
2471 2 7.5 1 6.5 
2472 2 7.5 1.5 6 
2473 1 8 1 6 
2474 1 8 1.5 6.5 
2475 1 8.5 1 6.5 
2476 1 8.5 1.5 6 
2477 1 9 1 6 
2478 1 9 1.5 6.5 
2479 1 9.5 1 6.5 
2480 1 9.5 1.5 6 
2481 2 0 2 6 
2482 1 0 2.5 6.5 
2483 1 0.5 2 6.5 
2484 2 0.5 2.5 6 
2485 1 1 2 6 
2486 1 1 2.5 6.5 
2487 1 1.5 2 6.5 
2488 2 1.5 2.5 6 
2489 2 2 2 6 
2490 1 2 2.5 6.5 
2491 1 2.5 2 6.5 
2492 2 2.5 2.5 6 
2493 1 3 2 6 
2494 2 3 2.5 6.5 
2495 1 3.5 2 6.5 
2496 1 3.5 2.5 6 
2497 2 4 2 6 
2498 2 4 2.5 6.5 
2499 1 4.5 2 6.5 
2500 2 4.5 2.5 6 
2501 1 5 2 6 
2502 1 5 2.5 6.5 
2503 1 5.5 2 6.5 
2504 1 5.5 2.5 6 
2505 1 6 2 6 
2506 1 6 2.5 6.5 
2507 2 6.5 2 6.5 
2508 1 6.5 2.5 6 
2509 1 7 2 6 
2510 1 7 2.5 6.5 
2511 2 7.5 2 6.5 
2512 1 7.5 2.5 6 
2513 1 8 2 6 
2514 1 8 2.5 6.5 
2515 1 8.5 2 6.5 
2516 1 8.5 2.5 6 
2517 1 9 2 6 
2518 2 9 2.5 6.5 
2519 1 9.5 2 6.5 
2520 1 9.5 2.5 6 
2521 1 0 3 6 
2522 2 0 3.5 6.5 
2523 2 0.5 3 6.5 
2524 1 0.5 3.5 6 
2525 1 1 3 6 
2526 1 1 3.5 6.5 
2527 1 1.5 3 6.5 
2528 1 1.5 3.5 6 
2529 1 2 3 6 
2530 1 2 3.5 6.5 
2531 1 2.5 3 6.5 
2532 1 2.5 3.5 6 
2533 1 3 3 6 
2534 1 3 3.5 6.5 
2535 1 3.5 3 6.5 
2536 2 3.5 3.5 6 
2537 2 4 3 6 
2538 1 4 3.5 6.5 
2539 1 4.5 3 6.5 
2540 1 4.5 3.5 6 
2541 2 5 3 6 
2542 1 5 3.5 6.5 
2543 2 5.5 3 6.5 
2544 1 5.5 3.5 6 
2545 1 6 3 6 
2546 1 6 3.5 6.5 
2547 2 6.5 3 6.5 
2548 1 6.5 3.5 6 
2549 1 7 3 6 
2550 1 7 3.5 6.5 
2551 1 7.5 3 6.5 
2552 1 7.5 3.5 6 
2553 1 8 3 6 
2554 1 8 3.5 6.5 
2555 1 8.5 3 6.5 
2556 1 8.5 3.5 6 
2557 1 9 3 6 
2558 1 9 3.5 6.5 
2559 1 9.5 3 6.5 
2560 1 9.5 3.5 6 
2561 1 0 4 6 
2562 1 0 4.5 6.5 
2563 1 0.5 4 6.5 
2564 2 0.5 4.5 6 
2565 2 1 4 6 
2566 1 1 4.5 6.5 
2567 1 1.5 4 6.5 
2568 1 1.5 4.5 6 
2569 1 2 4 6 
2570 2 2 4.5 6.5 
2571 1 2.5 4 6.5 
2572 1 2.5 4.5 6 
2573 1 3 4 6 
2574 1 3 4.5 6.5 
2575 1 3.5 4 6.5 
2576 1 3.5 4.5 6 
2577 1 4 4 6 
2578 2 4 4.5 6.5 
2579 2 4.5 4 6.5 
2580 2 4.5 4.5 6 
2581 1 5 4 6 
2582 2 5 4.5 6.5 
2583 2 5.5 4 6.5 
2584 1 5.5 4.5 6 
2585 1 6 4 6 
2586 1 6 4.5 6.5 
2587 1 6.5 4 6.5 
2588 1 6.5 4.5 6 
2589 1 7 4 6 
2590 1 7 4.5 6.5 
2591 1 7.5 4 6.5 
2592 1 7.5 4.5 6 
2593 1 8 4 6 
2594 1 8 4.5 6.5 
2595 2 8.5 4 6.5 
2596 1 8.5 4.5 6 
2597 1 9 4 6 
2598 1 9 4.5 6.5 
2599 1 9.5 4 6.5 
2600 1 9.5 4.5 6 
2601 1 0 5 6 
2602 1 0 5.5 6.5 
2603 1 0.5 5 6.5 
2604 1 0.5 5.5 6 
2605 1 1 5 6 
2606 1 1 5.5 6.5 
2607 1 1.5 5 6.5 
2608 1 1.5 5.5 6 
2609 1 2 5 6 
2610 1 2 5.5 6.5 
2611 1 2.5 5 6.5 
2612 1 2.5 5.5 6 
2613 2 3 5 6 
2614 1 3 5.5 6.5 
2615 2 3.5 5 6.5 
2616 2 3.5 5.5 6 
2617 2 4 5 6 
2618 2 4 5.5 6.5 
2619 2 4.5 5 6.5 
2620 2 4.5 5.5 6 
2621 1 5 5 6 
2622 1 5 5.5 6.5 
2623 2 5.5 5 6.5 
2624 1 5.5 5.5 6 
2625 1 6 5 6 
2626 1 6 5.5 6.5 
2627 1 6.5 5 6.5 
2628 1 6.5 5.5 6 
2629 1 7 5 6 
2630 1 7 5.5 6.5 
2631 1 7.5 5 6.5 
2632 1 7.5 5.5 6 
2633 1 8 5 6 
2634 2 8 5.5 6.5 
2635 1 8.5 5 6.5 
2636 2 8.5 5.5 6 
2637 1 9 5 6 
2638 1 9 5.5 6.5 
2639 1 9.5 5 6.5 
2640 1 9.5 5.5 6 
2641 1 0 6 6 
2642 1 0 6.5 6.5 
2643 2 0.5 6 6.5 
2644 1 0.5 6.5 6 
2645 1 1 6 6 
2646 1 1 6.5 6.5 
2647 1 1.5 6 6.5 
2648 1 1.5 6.5 6 
2649 1 2 6 6 
2650 1 2 6.5 6.5 
2651 1 2.5 6 6.5 
2652 1 2.5 6.5 6 
2653 1 3 6 6 
2654 1 3 6.5 6.5 
2655 2 3.5 6 6.5 
2656 2 3.5 6.5 6 
2657 2 4 6 6 
2658 1 4 6.5 6.5 
2659 2 4.5 6 6.5 
2660 1 4.5 6.5 6 
2661 1 5 6 6 
2662 1 5 6.5 6.5 
2663 1 5.5 6 6.5 
2664 1 5.5 6.5 6 
2665 1 6 6 6 
2666 1 6 6.5 6.5 
2667 1 6.5 6 6.5 
2668 1 6.5 6.5 6 
2669 1 7 6 6 
2670 1 7 6.5 6.5 
2671 1 7.5 6 6.5 
2672 2 7.5 6.5 6 
2673 2 8 6 6 
2674 1 8 6.5 6.5 
2675 2 8.5 6 6.5 
2676 1 8.5 6.5 6 
2677 1 9 6 6 
2678 1 9 6.5 6.5 
2679 2 9.5 6 6.5 
2680 2 9.5 6.5 6 
2681 1 0 7 6 
2682 1 0 7.5 6.5 
2683 1 0.5 7 6.5 
2684 1 0.5 7.5 6 
2685 2 1 7 6 
2686 1 1 7.5 6.5 
2687 2 1.5 7 6.5 
2688 1 1.5 7.5 6 
2689 1 2 7 6 
2690 1 2 7.5 6.5 
2691 2 2.5 7 6.5 
2692 1 2.5 7.5 6 
2693 1 3 7 6 
2694 2 3 7.5 6.5 
2695 2 3.5 7 6.5 
2696 1 3.5 7.5 6 
2697 1 4 7 6 
2698 1 4 7.5 6.5 
2699 2 4.5 7 6.5 
2700 1 4.5 7.5 6 
2701 1 5 7 6 
2702 1 5 7.5 6.5 
2703 1 5.5 7 6.5 
2704 2 5.5 7.5 6 
2705 1 6 7 6 
2706 1 6 7.5 6.5 
2707 1 6.5 7 6.5 
2708 2 6.5 7.5 6 
2709 1 7 7 6 
2710 2 7 7.5 6.5 
2711 1 7.5 7 6.5 
2712 1 7.5 7.5 6 
2713 1 8 7 6 
2714 1 8 7.5 6.5 
2715 1 8.5 7 6.5 
2716 2 8.5 7.5 6 
2717 1 9 7 6 
2718 1 9 7.5 6.5 
2719 2 9.5 7 6.5 
2720 1 9.5 7.5 6 
2721 2 0 8 6 
2722 1 0 8.5 6.5 
2723 2 0.5 8 6.5 
2724 1 0.5 8.5 6 
2725 1 1 8 6 
2726 2 1 8.5 6.5 
2727 1 1.5 8 6.5 
2728 1 1.5 8.5 6 
2729 1 2 8 6 
2730 2 2 8.5 6.5 
2731 2 2.5 8 6.5 
2732 1 2.5 8.5 6 
2733 1 3 8 6 
2734 2 3 8.5 6.5 
2735 2 3.5 8 6.5 
2736 1 3.5 8.5 6 
2737 1 4 8 6 
2738 1 4 8.5 6.5 
2739 2 4.5 8 6.5 
2740 1 4.5 8.5 6 
2741 2 5 8 6 
2742 1 5 8.5 6.5 
2743 1 5.5 8 6.5 
2744 1 5.5 8.5 6 
2745 1 6 8 6 
2746 1 6 8.5 6.5 
2747 2 6.5 8 6.5 
2748 2 6.5 8.5 6 
2749 1 7 8 6 
2750 1 7 8.5 6.5 
2751 1 7.5 8 6.5 
2752 1 7.5 8.5 6 
2753 2 8 8 6 
2754 1 8 8.5 6.5 
2755 1 8.5 8 6.5 
2756 2 8.5 8.5 6 
2757 1 9 8 6 
2758 2 9 8.5 6.5 
2759 1 9.5 8 6.5 
2760 2 9.5 8.5 6 
2761 1 0 9 6 
2762 1 0 9.5 6.5 
2763 1 0.5 9 6.5 
2764 1 0.5 9.5 6 
2765 1 1 9 6 
2766 1 1 9.5 6.5 
2767 1 1.5 9 6.5 
2768 1 1.5 9.5 6 
2769 2 2 9 6 
2770 1 2 9.5 6.5 
2771 1 2.5 9 6.5 
2772 2 2.5 9.5 6 
2773 2 3 9 6 
2774 2 3 9.5 6.5 
2775 2 3.5 9 6.5 
2776 2 3.5 9.5 6 
2777 1 4 9 6 
2778 1 4 9.5 6.5 
2779 1 4.5 9 6.5 
2780 2 4.5 9.5 6 
2781 2 5 9 6 
2782 1 5 9.5 6.5 
2783 1 5.5 9 6.5 
2784 1 5.5 9.5 6 
2785 1 6 9 6 
2786 1 6 9.5 6.5 
2787 1 6.5 9 6.5 
2788 1 6.5 9.5 6 
2789 1 7 9 6 
2790 1 7 9.5 6.5 
2791 2 7.5 9 6.5 
2792 1 7.5 9.5 6 
2793 1 8 9 6 
2794 2 8 9.5 6.5 
2795 1 8.5 9 6.5 
2796 1 8.5 9.5 6 
2797 1 9 9 6 
2798 1 9 9.5 6.5 
2799 2 9.5 9 6.5 
2800 1 9.5 9.5 6 
2801 2 0 0 7 
2802 2 0 0.5 7.5 
2803 2 0.5 0 7.5 
2804 2 0.5 0.5 7 
2805 1 1 0 7 
2806 1 1 0.5 7.5 
2807 1 1.5 0 7.5 
2808 1 1.5 0.5 7 
2809 1 2 0 7 
2810 1 2 0.5 7.5 
2811 1 2.5 0 7.5 
2812 1 2.5 0.5 7 
2813 2 3 0 7 
2814 1 3 0.5 7.5 
2815 1 3.5 0 7.5 
2816 1 3.5 0.5 7 
2817 1 4 0 7 
2818 2 4 0.5 7.5 
2819 1 4.5 0 7.5 
2820 1 4.5 0.5 7 
2821 1 5 0 7 
2822 1 5 0.5 7.5 
2823 2 5.5 0 7.5 
2824 2 5.5 0.5 7 
2825 1 6 0 7 
2826 1 6 0.5 7.5 
2827 1 6.5 0 7.5 
2828 1 6.5 0.5 7 
2829 2 7 0 7 
2830 1 7 0.5 7.5 
2831 1 7.5 0 7.5 
2832 2 7.5 0.5 7 
2833 1 8 0 7 
2834 2 8 0.5 7.5 
2835 1 8.5 0 7.5 
2836 1 8.5 0.5 7 
2837 1 9 0 7 
2838 1 9 0.5 7.5 
2839 2 9.5 0 7.5 
2840 1 9.5 0.5 7 
2841 2 0 1 7 
2842 2 0 1.5 7.5 
2843 1 0.5 1 7.5 
2844 2 0.5 1.5 7 
2845 1 1 1 7 
2846 1 1 1.5 7.5 
2847 1 1.5 1 7.5 
2848 2 1.5 1.5 7 
2849 1 2 1 7 
2850 2 2 1.5 7.5 
2851 2 2.5 1 7.5 
2852 2 2.5 1.5 7 
2853 1 3 1 7 
2854 1 3 1.5 7.5 
2855 2 3.5 1 7.5 
2856 2 3.5 1.5 7 
2857 1 4 1 7 
2858 1 4 1.5 7.5 
2859 1 4.5 1 7.5 
2860 1 4.5 1.5 7 
2861 1 5 1 7 
2862 1 5 1.5 7.5 
2863 2 5.5 1 7.5 
2864 1 5.5 1.5 7 
2865 2 6 1 7 
2866 1 6 1.5 7.5 
2867 2 6.5 1 7.5 
2868 2 6.5 1.5 7 
2869 2 7 1 7 
2870 2 7 1.5 7.5 
2871 1 7.5 1 7.5 
2872 1 7.5 1.5 7 
2873 1 8 1 7 
2874 1 8 1.5 7.5 
2875 1 8.5 1 7.5 
2876 1 8.5 1.5 7 
2877 1 9 1 7 
2878 1 9 1.5 7.5 
2879 2 9.5 1 7.5 
2880 1 9.5 1.5 7 
2881 1 0 2 7 
2882 2 0 2.5 7.5 
2883 2 0.5 2 7.5 
2884 1 0.5 2.5 7 
2885 1 1 2 7 
2886 1 1 2.5 7.5 
2887 1 1.5 2 7.5 
2888 1 1.5 2.5 7 
2889 1 2 2 7 
2890 2 2 2.5 7.5 
2891 1 2.5 2 7.5 
2892 1 2.5 2.5 7 
2893 2 3 2 7 
2894 1 3 2.5 7.5 
2895 1 3.5 2 7.5 
2896 1 3.5 2.5 7 
2897 1 4 2 7 
2898 2 4 2.5 7.5 
2899 1 4.5 2 7.5 
2900 2 4.5 2.5 7 
2901 2 5 2 7 
2902 2 5 2.5 7.5 
2903 2 5.5 2 7.5 
2904 1 5.5 2.5 7 
2905 1 6 2 7 
2906 2 6 2.5 7.5 
2907 2 6.5 2 7.5 
2908 2 6.5 2.5 7 
2909 2 7 2 7 
2910 1 7 2.5 7.5 
2911 1 7.5 2 7.5 
2912 2 7.5 2.5 7 
2913 2 8 2 7 
2914 1 8 2.5 7.5 
2915 1 8.5 2 7.5 
2916 2 8.5 2.5 7 
2917 1 9 2 7 
2918 2 9 2.5 7.5 
2919 1 9.5 2 7.5 
2920 1 9.5 2.5 7 
2921 1 0 3 7 
2922 2 0 3.5 7.5 
2923 1 0.5 3 7.5 
2924 2 0.5 3.5 7 
2925 1 1 3 7 
2926 1 1 3.5 7.5 
2927 1 1.5 3 7.5 
2928 2 1.5 3.5 7 
2929 1 2 3 7 
2930 1 2 3.5 7.5 
2931 1 2.5 3 7.5 
2932 1 2.5 3.5 7 
2933 1 3 3 7 
2934 2 3 3.5 7.5 
2935 1 3.5 3 7.5 
2936 1 3.5 3.5 7 
2937 1 4 3 7 
2938 1 4 3.5 7.5 
2939 2 4.5 3 7.5 
2940 1 4.5 3.5 7 
2941 1 5 3 7 
2942 1 5 3.5 7.5 
2943 1 5.5 3 7.5 
2944 2 5.5 3.5 7 
2945 1 6 3 7 
2946 2 6 3.5 7.5 
2947 1 6.5 3 7.5 
2948 1 6.5 3.5 7 
2949 1 7 3 7 
2950 1 7 3.5 7.5 
2951 2 7.5 3 7.5 
2952 1 7.5 3.5 7 
2953 1 8 3 7 
2954 1 8 3.5 7.5 
2955 1 8.5 3 7.5 
2956 1 8.5 3.5 7 
2957 1 9 3 7 
2958 2 9 3.5 7.5 
2959 1 9.5 3 7.5 
2960 2 9.5 3.5 7 
2961 1 0 4 7 
2962 2 0 4.5 7.5 
2963 2 0.5 4 7.5 
2964 1 0.5 4.5 7 
2965 2 1 4 7 
2966 2 1 4.5 7.5 
2967 1 1.5 4 7.5 
2968 1 1.5 4.5 7 
2969 2 2 4 7 
2970 1 2 4.5 7.5 
2971 1 2.5 4 7.5 
2972 2 2.5 4.5 7 
2973 1 3 4 7 
2974 2 3 4.5 7.5 
2975 1 3.5 4 7.5 
2976 1 3.5 4.5 7 
2977 1 4 4 7 
2978 1 4 4.5 7.5 
2979 2 4.5 4 7.5 
2980 2 4.5 4.5 7 
2981 1 5 4 7 
2982 1 5 4.5 7.5 
2983 1 5.5 4 7.5 
2984 2 5.5 4.5 7 
2985 1 6 4 7 
2986 1 6 4.5 7.5 
2987 1 6.5 4 7.5 
2988 1 6.5 4.5 7 
2989 2 7 4 7 
2990 2 7 4.5 7.5 
2991 1 7.5 4 7.5 
2992 2 7.5 4.5 7 
2993 1 8 4 7 
2994 1 8 4.5 7.5 
2995 1 8.5 4 7.5 
2996 1 8.5 4.5 7 
2997 1 9 4 7 
2998 1 9 4.5 7.5 
2999 1 9.5 4 7.5 
3000 1 9.5 4.5 7 
3001 2 0 5 7 
3002 2 0 5.5 7.5 
3003 2 0.5 5 7.5 
3004 1 0.5 5.5 7 
3005 1 1 5 7 
3006 1 1 5.5 7.5 
3007 1 1.5 5 7.5 
3008 1 1.5 5.5 7 
3009 2 2 5 7 
3010 2 2 5.5 7.5 
3011 1 2.5 5 7.5 
3012 2 2.5 5.5 7 
3013 1 3 5 7 
3014 2 3 5.5 7.5 
3015 1 3.5 5 7.5 
3016 1 3.5 5.5 7 
3017 2 4 5 7 
3018 1 4 5.5 7.5 
3019 1 4.5 5 7.5 
3020 2 4.5 5.5 7 
3021 2 5 5 7 
3022 2 5 5.5 7.5 
3023 1 5.5 5 7.5 
3024 1 5.5 5.5 7 
3025 1 6 5 7 
3026 1 6 5.5 7.5 
3027 2 6.5 5 7.5 
3028 1 6.5 5.5 7 
3029 2 7 5 7 
3030 1 7 5.5 7.5 
3031 1 7.5 5 7.5 
3032 2 7.5 5.5 7 
3033 1 8 5 7 
3034 1 8 5.5 7.5 
3035 1 8.5 5 7.5 
3036 1 8.5 5.5 7 
3037 1 9 5 7 
3038 1 9 5.5 7.5 
3039 2 9.5 5 7.5 
3040 2 9.5 5.5 7 
3041 1 0 6 7 
3042 1 0 6.5 7.5 
3043 1 0.5 6 7.5 
3044 2 0.5 6.5 7 
3045 2 1 6 7 
3046 2 1 6.5 7.5 
3047 1 1.5 6 7.5 
3048 2 1.5 6.5 7 
3049 1 2 6 7 
3050 2 2 6.5 7.5 
3051 1 2.5 6 7.5 
3052 1 2.5 6.5 7 
3053 1 3 6 7 
3054 1 3 6.5 7.5 
3055 1 3.5 6 7.5 
3056 2 3.5 6.5 7 
3057 1 4 6 7 
3058 1 4 6.5 7.5 
3059 1 4.5 6 7.5 
3060 2 4.5 6.5 7 
3061 1 5 6 7 
3062 2 5 6.5 7.5 
3063 1 5.5 6 7.5 
3064 1 5.5 6.5 7 
3065 1 6 6 7 
3066 1 6 6.5 7.5 
3067 1 6.5 6 7.5 
3068 1 6.5 6.5 7 
3069 1 7 6 7 
3070 1 7 6.5 7.5 
3071 1 7.5 6 7.5 
3072 1 7.5 6.5 7 
3073 2 8 6 7 
3074 1 8 6.5 7.5 
3075 1 8.5 6 7.5 
3076 1 8.5 6.5 7 
3077 2 9 6 7 
3078 2 9 6.5 7.5 
3079 2 9.5 6 7.5 
3080 2 9.5 6.5 7 
3081 1 0 7 7 
3082 1 0 7.5 7.5 
3083 2 0.5 7 7.5 
3084 1 0.5 7.5 7 
3085 2 1 7 7 
3086 2 1 7.5 7.5 
3087 2 1.5 7 7.5 
3088 2 1.5 7.5 7 
3089 1 2 7 7 
3090 2 2 7.5 7.5 
3091 1 2.5 7 7.5 
3092 1 2.5 7.5 7 
3093 2 3 7 7 
3094 1 3 7.5 7.5 
3095 1 3.5 7 7.5 
3096 2 3.5 7.5 7 
3097 2 4 7 7 
3098 1 4 7.5 7.5 
3099 1 4.5 7 7.5 
3100 1 4.5 7.5 7 
3101 2 5 7 7 
3102 1 5 7.5 7.5 
3103 2 5.5 7 7.5 
3104 1 5.5 7.5 7 
3105 1 6 7 7 
3106 1 6 7.5 7.5 
3107 2 6.5 7 7.5 
3108 2 6.5 7.5 7 
3109 2 7 7 7 
3110 1 7 7.5 7.5 
3111 2 7.5 7 7.5 
3112 2 7.5 7.5 7 
3113 1 8 7 7 
3114 2 8 7.5 7.5 
3115 1 8.5 7 7.5 
3116 1 8.5 7.5 7 
3117 2 9 7 7 
3118 2 9 7.5 7.5 
3119 1 9.5 7 7.5 
3120 1 9.5 7.5 7 
3121 1 0 8 7 
3122 1 0 8.5 7.5 
3123 1 0.5 8 7.5 
3124 2 0.5 8.5 7 
3125 1 1 8 7 
3126 1 1 8.5 7.5 
3127 2 1.5 8 7.5 
3128 1 1.5 8.5 7 
3129 2 2 8 7 
3130 1 2 8.5 7.5 
3131 1 2.5 8 7.5 
3132 1 2.5 8.5 7 
3133 2 3 8 7 
3134 1 3 8.5 7.5 
3135 1 3.5 8 7.5 
3136 2 3.5 8.5 7 
3137 2 4 8 7 
3138 1 4 8.5 7.5 
3139 1 4.5 8 7.5 
3140 1 4.5 8.5 7 
3141 1 5 8 7 
3142 2 5 8.5 7.5 
3143 2 5.5 8 7.5 
3144 1 5.5 8.5 7 
3145 1 6 8 7 
3146 2 6 8.5 7.5 
3147 2 6.5 8 7.5 
3148 1 6.5 8.5 7 
3149 2 7 8 7 
3150 1 7 8.5 7.5 
3151 1 7.5 8 7.5 
3152 1 7.5 8.5 7 
3153 1 8 8 7 
3154 1 8 8.5 7.5 
3155 2 8.5 8 7.5 
3156 2 8.5 8.5 7 
3157 2 9 8 7 
3158 2 9 8.5 7.5 
3159 1 9.5 8 7.5 
3160 1 9.5 8.5 7 
3161 2 0 9 7 
3162 1 0 9.5 7.5 
3163 2 0.5 9 7.5 
3164 1 0.5 9.5 7 
3165 1 1 9 7 
3166 2 1 9.5 7.5 
3167 1 1.5 9 7.5 
3168 1 1.5 9.5 7 
3169 1 2 9 7 
3170 1 2 9.5 7.5 
3171 1 2.5 9 7.5 
3172 1 2.5 9.5 7 
3173 2 3 9 7 
3174 1 3 9.5 7.5 
3175 1 3.5 9 7.5 
3176 1 3.5 9.5 7 
3177 2 4 9 7 
3178 1 4 9.5 7.5 
3179 2 4.5 9 7.5 
3180 1 4.5 9.5 7 
3181 1 5 9 7 
3182 1 5 9.5 7.5 
3183 1 5.5 9 7.5 
3184 1 5.5 9.5 7 
3185 2 6 9 7 
3186 2 6 9.5 7.5 
3187 1 6.5 9 7.5 
3188 1 6.5 9.5 7 
3189 1 7 9 7 
3190 1 7 9.5 7.5 
3191 1 7.5 9 7.5 
3192 1 7.5 9.5 7 
3193 2 8 9 7 
3194 2 8 9.5 7.5 
3195 1 8.5 9 7.5 
3196 1 8.5 9.5 7 
3197 2 9 9 7 
3198 1 9 9.5 7.5 
3199 2 9.5 9 7.5 
3200 2 9.5 9.5 7 
3201 1 0 0 8 
3202 1 0 0.5 8.5 
3203 1 0.5 0 8.5 
3204 2 0.5 0.5 8 
3205 1 1 0 8 
3206 1 1 0.5 8.5 
3207 2 1.5 0 8.5 
3208 1 1.5 0.5 8 
3209 1 2 0 8 
3210 2 2 0.5 8.5 
3211 1 2.5 0 8.5 
3212 2 2.5 0.5 8 
3213 2 3 0 8 
3214 2 3 0.5 8.5 
3215 1 3.5 0 8.5 
3216 2 3.5 0.5 8 
3217 1 4 0 8 
3218 2 4 0.5 8.5 
3219 1 4.5 0 8.5 
3220 2 4.5 0.5 8 
3221 2 5 0 8 
3222 2 5 0.5 8.5 
3223 1 5.5 0 8.5 
3224 1 5.5 0.5 8 
3225 2 6 0 8 
3226 1 6 0.5 8.5 
3227 1 6.5 0 8.5 
3228 1 6.5 0.5 8 
3229 1 7 0 8 
3230 1 7 0.5 8.5 
3231 2 7.5 0 8.5 
3232 1 7.5 0.5 8 
3233 2 8 0 8 
3234 2 8 0.5 8.5 
3235 2 8.5 0 8.5 
3236 1 8.5 0.5 8 
3237 2 9 0 8 
3238 1 9 0.5 8.5 
3239 2 9.5 0 8.5 
3240 1 9.5 0.5 8 
3241 1 0 1 8 
3242 2 0 1.5 8.5 
3243 1 0.5 1 8.5 
3244 2 0.5 1.5 8 
3245 1 1 1 8 
3246 1 1 1.5 8.5 
3247 1 1.5 1 8.5 
3248 1 1.5 1.5 8 
3249 1 2 1 8 
3250 1 2 1.5 8.5 
3251 1 2.5 1 8.5 
3252 2 2.5 1.5 8 
3253 2 3 1 8 
3254 2 3 1.5 8.5 
3255 2 3.5 1 8.5 
3256 1 3.5 1.5 8 
3257 2 4 1 8 
3258 1 4 1.5 8.5 
3259 1 4.5 1 8.5 
3260 2 4.5 1.5 8 
3261 1 5 1 8 
3262 1 5 1.5 8.5 
3263 1 5.5 1 8.5 
3264 2 5.5 1.5 8 
3265 1 6 1 8 
3266 1 6 1.5 8.5 
3267 2 6.5 1 8.5 
3268 1 6.5 1.5 8 
3269 2 7 1 8 
3270 1 7 1.5 8.5 
3271 1 7.5 1 8.5 
3272 1 7.5 1.5 8 
3273 2 8 1 8 
3274 2 8 1.5 8.5 
3275 2 8.5 1 8.5 
3276 1 8.5 1.5 8 
3277 2 9 1 8 
3278 1 9 1.5 8.5 
3279 1 9.5 1 8.5 
3280 2 9.5 1.5 8 
3281 2 0 2 8 
3282 2 0 2.5 8.5 
3283 1 0.5 2 8.5 
3284 2 0.5 2.5 8 
3285 2 1 2 8 
3286 2 1 2.5 8.5 
3287 1 1.5 2 8.5 
3288 2 1.5 2.5 8 
3289 2 2 2 8 
3290 1 2 2.5 8.5 
3291 2 2.5 2 8.5 
3292 1 2.5 2.5 8 
3293 2 3 2 8 
3294 2 3 2.5 8.5 
3295 2 3.5 2 8.5 
3296 2 3.5 2.5 8 
3297 1 4 2 8 
3298 1 4 2.5 8.5 
3299 1 4.5 2 8.5 
3300 1 4.5 2.5 8 
3301 1 5 2 8 
3302 1 5 2.5 8.5 
3303 1 5.5 2 8.5 
3304 2 5.5 2.5 8 
3305 2 6 2 8 
3306 1 6 2.5 8.5 
3307 1 6.5 2 8.5 
3308 2 6.5 2.5 8 
3309 2 7 2 8 
3310 2 7 2.5 8.5 
3311 2 7.5 2 8.5 
3312 2 7.5 2.5 8 
3313 2 8 2 8 
3314 1 8 2.5 8.5 
3315 2 8.5 2 8.5 
3316 1 8.5 2.5 8 
3317 1 9 2 8 
3318 1 9 2.5 8.5 
3319 1 9.5 2 8.5 
3320 1 9.5 2.5 8 
3321 1 0 3 8 
3322 2 0 3.5 8.5 
3323 2 0.5 3 8.5 
3324 2 0.5 3.5 8 
3325 1 1 3 8 
3326 1 1 3.5 8.5 
3327 2 1.5 3 8.5 
3328 2 1.5 3.5 8 
3329 1 2 3 8 
3330 1 2 3.5 8.5 
3331 1 2.5 3 8.5 
3332 1 2.5 3.5 8 
3333 2 3 3 8 
3334 2 3 3.5 8.5 
3335 1 3.5 3 8.5 
3336 1 3.5 3.5 8 
3337 1 4 3 8 
3338 2 4 3.5 8.5 
3339 2 4.5 3 8.5 
3340 1 4.5 3.5 8 
3341 2 5 3 8 
3342 2 5 3.5 8.5 
3343 2 5.5 3 8.5 
3344 2 5.5 3.5 8 
3345 2 6 3 8 
3346 2 6 3.5 8.5 
3347 1 6.5 3 8.5 
3348 1 6.5 3.5 8 
3349 2 7 3 8 
3350 1 7 3.5 8.5 
3351 2 7.5 3 8.5 
3352 1 7.5 3.5 8 
3353 1 8 3 8 
3354 2 8 3.5 8.5 
3355 1 8.5 3 8.5 
3356 1 8.5 3.5 8 
3357 1 9 3 8 
3358 1 9 3.5 8.5 
3359 1 9.5 3 8.5 
3360 2 9.5 3.5 8 
3361 1 0 4 8 
3362 2 0 4.5 8.5 
3363 1 0.5 4 8.5 
3364 1 0.5 4.5 8 
3365 1 1 4 8 
3366 1 1 4.5 8.5 
3367 2 1.5 4 8.5 
3368 2 1.5 4.5 8 
3369 1 2 4 8 
3370 2 2 4.5 8.5 
3371 1 2.5 4 8.5 
3372 2 2.5 4.5 8 
3373 2 3 4 8 
3374 1 3 4.5 8.5 
3375 1 3.5 4 8.5 
3376 1 3.5 4.5 8 
3377 1 4 4 8 
3378 2 4 4.5 8.5 
3379 2 4.5 4 8.5 
3380 1 4.5 4.5 8 
3381 1 5 4 8 
3382 2 5 4.5 8.5 
3383 2 5.5 4 8.5 
3384 2 5.5 4.5 8 
3385 2 6 4 8 
3386 2 6 4.5 8.5 
3387 2 6.5 4 8.5 
3388 1 6.5 4.5 8 
3389 1 7 4 8 
3390 1 7 4.5 8.5 
3391 2 7.5 4 8.5 
3392 2 7.5 4.5 8 
3393 2 8 4 8 
3394 2 8 4.5 8.5 
3395 2 8.5 4 8.5 
3396 1 8.5 4.5 8 
3397 1 9 4 8 
3398 1 9 4.5 8.5 
3399 1 9.5 4 8.5 
3400 1 9.5 4.5 8 
3401 2 0 5 8 
3402 2 0 5.5 8.5 
3403 2 0.5 5 8.5 
3404 2 0.5 5.5 8 
3405 1 1 5 8 
3406 1 1 5.5 8.5 
3407 2 1.5 5 8.5 
3408 1 1.5 5.5 8 
3409 1 2 5 8 
3410 1 2 5.5 8.5 
3411 1 2.5 5 8.5 
3412 1 2.5 5.5 8 
3413 1 3 5 8 
3414 1 3 5.5 8.5 
3415 2 3.5 5 8.5 
3416 1 3.5 5.5 8 
3417 1 4 5 8 
3418 1 4 5.5 8.5 
3419 2 4.5 5 8.5 
3420 2 4.5 5.5 8 
3421 1 5 5 8 
3422 1 5 5.5 8.5 
3423 2 5.5 5 8.5 
3424 1 5.5 5.5 8 
3425 1 6 5 8 
3426 1 6 5.5 8.5 
3427 2 6.5 5 8.5 
3428 1 6.5 5.5 8 
3429 2 7 5 8 
3430 2 7 5.5 8.5 
3431 1 7.5 5 8.5 
3432 1 7.5 5.5 8 
3433 1 8 5 8 
3434 2 8 5.5 8.5 
3435 1 8.5 5 8.5 
3436 1 8.5 5.5 8 
3437 1 9 5 8 
3438 2 9 5.5 8.5 
3439 1 9.5 5 8.5 
3440 1 9.5 5.5 8 
3441 2 0 6 8 
3442 2 0 6.5 8.5 
3443 1 0.5 6 8.5 
3444 1 0.5 6.5 8 
3445 1 1 6 8 
3446 1 1 6.5 8.5 
3447 2 1.5 6 8.5 
3448 1 1.5 6.5 8 
3449 1 2 6 8 
3450 1 2 6.5 8.5 
3451 1 2.5 6 8.5 
3452 2 2.5 6.5 8 
3453 2 3 6 8 
3454 1 3 6.5 8.5 
3455 2 3.5 6 8.5 
3456 2 3.5 6.5 8 
3457 1 4 6 8 
3458 1 4 6.5 8.5 
3459 2 4.5 6 8.5 
3460 2 4.5 6.5 8 
3461 2 5 6 8 
3462 1 5 6.5 8.5 
3463 1 5.5 6 8.5 
3464 2 5.5 6.5 8 
3465 2 6 6 8 
3466 1 6 6.5 8.5 
3467 2 6.5 6 8.5 
3468 1 6.5 6.5 8 
3469 1 7 6 8 
3470 2 7 6.5 8.5 
3471 1 7.5 6 8.5 
3472 2 7.5 6.5 8 
3473 1 8 6 8 
3474 1 8 6.5 8.5 
3475 1 8.5 6 8.5 
3476 2 8.5 6.5 8 
3477 2 9 6 8 
3478 1 9 6.5 8.5 
3479 1 9.5 6 8.5 
3480 1 9.5 6.5 8 
3481 2 0 7 8 
3482 1 0 7.5 8.5 
3483 1 0.5 7 8.5 
3484 1 0.5 7.5 8 
3485 1 1 7 8 
3486 2 1 7.5 8.5 
3487 1 1.5 7 8.5 
3488 2 1.5 7.5 8 
3489 1 2 7 8 
3490 1 2 7.5 8.5 
3491 1 2.5 7 8.5 
3492 1 2.5 7.5 8 
3493 2 3 7 8 
3494 1 3 7.5 8.5 
3495 2 3.5 7 8.5 
3496 2 3.5 7.5 8 
3497 1 4 7 8 
3498 2 4 7.5 8.5 
3499 2 4.5 7 8.5 
3500 1 4.5 7.5 8 
3501 1 5 7 8 
3502 1 5 7.5 8.5 
3503 1 5.5 7 8.5 
3504 2 5.5 7.5 8 
3505 1 6 7 8 
3506 1 6 7.5 8.5 
3507 1 6.5 7 8.5 
3508 1 6.5 7.5 8 
3509 1 7 7 8 
3510 1 7 7.5 8.5 
3511 2 7.5 7 8.5 
3512 2 7.5 7.5 8 
3513 1 8 7 8 
3514 2 8 7.5 8.5 
3515 1 8.5 7 8.5 
3516 2 8.5 7.5 8 
3517 2 9 7 8 
3518 1 9 7.5 8.5 
3519 1 9.5 7 8.5 
3520 2 9.5 7.5 8 
3521 1 0 8 8 
3522 1 0 8.5 8.5 
3523 2 0.5 8 8.5 
3524 1 0.5 8.5 8 
3525 1 1 8 8 
3526 1 1 8.5 8.5 
3527 1 1.5 8 8.5 
3528 1 1.5 8.5 8 
3529 2 2 8 8 
3530 2 2 8.5 8.5 
3531 1 2.5 8 8.5 
3532 1 2.5 8.5 8 
3533 1 3 8 8 
3534 1 3 8.5 8.5 
3535 1 3.5 8 8.5 
3536 1 3.5 8.5 8 
3537 1 4 8 8 
3538 1 4 8.5 8.5 
3539 1 4.5 8 8.5 
3540 1 4.5 8.5 8 
3541 1 5 8 8 
3542 1 5 8.5 8.5 
3543 2 5.5 8 8.5 
3544 1 5.5 8.5 8 
3545 1 6 8 8 
3546 1 6 8.5 8.5 
3547 1 6.5 8 8.5 
3548 1 6.5 8.5 8 
3549 2 7 8 8 
3550 1 7 8.5 8.5 
3551 1 7.5 8 8.5 
3552 1 7.5 8.5 8 
3553 1 8 8 8 
3554 1 8 8.5 8.5 
3555 2 8.5 8 8.5 
3556 1 8.5 8.5 8 
3557 2 9 8 8 
3558 2 9 8.5 8.5 
3559 1 9.5 8 8.5 
3560 1 9.5 8.5 8 
3561 2 0 9 8 
3562 1 0 9.5 8.5 
3563 1 0.5 9 8.5 
3564 2 0.5 9.5 8 
3565 1 1 9 8 
3566 2 1 9.5 8.5 
3567 1 1.5 9 8.5 
3568 2 1.5 9.5 8 
3569 2 2 9 8 
3570 1 2 9.5 8.5 
3571 1 2.5 9 8.5 
3572 1 2.5 9.5 8 
3573 2 3 9 8 
3574 1 3 9.5 8.5 
3575 2 3.5 9 8.5 
3576 1 3.5 9.5 8 
3577 2 4 9 8 
3578 1 4 9.5 8.5 
3579 2 4.5 9 8.5 
3580 1 4.5 9.5 8 
3581 1 5 9 8 
3582 2 5 9.5 8.5 
3583 2 5.5 9 8.5 
3584 2 5.5 9.5 8 
3585 1 6 9 8 
3586 1 6 9.5 8.5 
3587 2 6.5 9 8.5 
3588 1 6.5 9.5 8 
3589 2 7 9 8 
3590 1 7 9.5 8.5 
3591 1 7.5 9 8.5 
3592 1 7.5 9.5 8 
3593 1 8 9 8 
3594 1 8 9.5 8.5 
3595 2 8.5 9 8.5 
3596 1 8.5 9.5 8 
3597 1 9 9 8 
3598 1 9 9.5 8.5 
3599 1 9.5 9 8.5 
3600 1 9.5 9.5 8 
3601 1 0 0 9 
3602 1 0 0.5 9.5 
3603 1 0.5 0 9.5 
3604 1 0.5 0.5 9 
3605 1 1 0 9 
3606 1 1 0.5 9.5 
3607 1 1.5 0 9.5 
3608 2 1.5 0.5 9 
3609 2 2 0 9 
3610 2 2 0.5 9.5 
3611 2 2.5 0 9.5 
3612 2 2.5 0.5 9 
3613 2 3 0 9 
3614 1 3 0.5 9.5 
3615 2 3.5 0 9.5 
3616 2 3.5 0.5 9 
3617 1 4 0 9 
3618 2 4 0.5 9.5 
3619 1 4.5 0 9.5 
3620 2 4.5 0.5 9 
3621 2 5 0 9 
3622 1 5 0.5 9.5 
3623 1 5.5 0 9.5 
3624 1 5.5 0.5 9 
3625 1 6 0 9 
3626 1 6 0.5 9.5 
3627 1 6.5 0 9.5 
3628 1 6.5 0.5 9 
3629 2 7 0 9 
3630 2 7 0.5 9.5 
3631 1 7.5 0 9.5 
3632 1 7.5 0.5 9 
3633 1 8 0 9 
3634 2 8 0.5 9.5 
3635 1 8.5 0 9.5 
3636 1 8.5 0.5 9 
3637 1 9 0 9 
3638 1 9 0.5 9.5 
3639 1 9.5 0 9.5 
3640 1 9.5 0.5 9 
3641 2 0 1 9 
3642 1 0 1.5 9.5 
3643 2 0.5 1 9.5 
3644 2 0.5 1.5 9 
3645 1 1 1 9 
3646 1 1 1.5 9.5 
3647 2 1.5 1 9.5 
3648 1 1.5 1.5 9 
3649 2 2 1 9 
3650 2 2 1.5 9.5 
3651 2 2.5 1 9.5 
3652 2 2.5 1.5 9 
3653 1 3 1 9 
3654 1 3 1.5 9.5 
3655 2 3.5 1 9.5 
3656 2 3.5 1.5 9 
3657 2 4 1 9 
3658 2 4 1.5 9.5 
3659 1 4.5 1 9.5 
3660 1 4.5 1.5 9 
3661 1 5 1 9 
3662 2 5 1.5 9.5 
3663 1 5.5 1 9.5 
3664 2 5.5 1.5 9 
3665 1 6 1 9 
3666 1 6 1.5 9.5 
3667 1 6.5 1 9.5 
3668 1 6.5 1.5 9 
3669 1 7 1 9 
3670 2 7 1.5 9.5 
3671 1 7.5 1 9.5 
3672 2 7.5 1.5 9 
3673 1 8 1 9 
3674 1 8 1.5 9.5 
3675 1 8.5 1 9.5 
3676 2 8.5 1.5 9 
3677 2 9 1 9 
3678 1 9 1.5 9.5 
3679 1 9.5 1 9.5 
3680 2 9.5 1.5 9 
3681 1 0 2 9 
3682 2 0 2.5 9.5 
3683 1 0.5 2 9.5 
3684 1 0.5 2.5 9 
3685 2 1 2 9 
3686 2 1 2.5 9.5 
3687 1 1.5 2 9.5 
3688 2 1.5 2.5 9 
3689 1 2 2 9 
3690 1 2 2.5 9.5 
3691 1 2.5 2 9.5 
3692 2 2.5 2.5 9 
3693 2 3 2 9 
3694 1 3 2.5 9.5 
3695 2 3.5 2 9.5 
3696 2 3.5 2.5 9 
3697 2 4 2 9 
3698 2 4 2.5 9.5 
3699 2 4.5 2 9.5 
3700 2 4.5 2.5 9 
3701 2 5 2 9 
3702 2 5 2.5 9.5 
3703 1 5.5 2 9.5 
3704 2 5.5 2.5 9 
3705 1 6 2 9 
3706 2 6 2.5 9.5 
3707 1 6.5 2 9.5 
3708 1 6.5 2.5 9 
3709 2 7 2 9 
3710 2 7 2.5 9.5 
3711 1 7.5 2 9.5 
3712 2 7.5 2.5 9 
3713 1 8 2 9 
3714 1 8 2.5 9.5 
3715 1 8.5 2 9.5 
3716 1 8.5 2.5 9 
3717 2 9 2 9 
3718 2 9 2.5 9.5 
3719 1 9.5 2 9.5 
3720 1 9.5 2.5 9 
3721 1 0 3 9 
3722 1 0 3.5 9.5 
3723 1 0.5 3 9.5 
3724 2 0.5 3.5 9 
3725 2 1 3 9 
3726 1 1 3.5 9.5 
3727 1 1.5 3 9.5 
3728 1 1.5 3.5 9 
3729 1 2 3 9 
3730 2 2 3.5 9.5 
3731 2 2.5 3 9.5 
3732 1 2.5 3.5 9 
3733 2 3 3 9 
3734 1 3 3.5 9.5 
3735 2 3.5 3 9.5 
3736 2 3.5 3.5 9 
3737 1 4 3 9 
3738 1 4 3.5 9.5 
3739 1 4.5 3 9.5 
3740 2 4.5 3.5 9 
3741 1 5 3 9 
3742 2 5 3.5 9.5 
3743 1 5.5 3 9.5 
3744 1 5.5 3.5 9 
3745 1 6 3 9 
3746 2 6 3.5 9.5 
3747 1 6.5 3 9.5 
3748 2 6.5 3.5 9 
3749 2 7 3 9 
3750 2 7 3.5 9.5 
3751 2 7.5 3 9.5 
3752 1 7.5 3.5 9 
3753 1 8 3 9 
3754 1 8 3.5 9.5 
3755 2 8.5 3 9.5 
3756 1 8.5 3.5 9 
3757 1 9 3 9 
3758 1 9 3.5 9.5 
3759 1 9.5 3 9.5 
3760 2 9.5 3.5 9 
3761 1 0 4 9 
3762 2 0 4.5 9.5 
3763 1 0.5 4 9.5 
3764 2 0.5 4.5 9 
3765 1 1 4 9 
3766 1 1 4.5 9.5 
3767 2 1.5 4 9.5 
3768 2 1.5 4.5 9 
3769 2 2 4 9 
3770 1 2 4.5 9.5 
3771 1 2.5 4 9.5 
3772 2 2.5 4.5 9 
3773 2 3 4 9 
3774 1 3 4.5 9.5 
3775 1 3.5 4 9.5 
3776 2 3.5 4.5 9 
3777 2 4 4 9 
3778 2 4 4.5 9.5 
3779 1 4.5 4 9.5 
3780 1 4.5 4.5 9 
3781 2 5 4 9 
3782 2 5 4.5 9.5 
3783 1 5.5 4 9.5 
3784 1 5.5 4.5 9 
3785 1 6 4 9 
3786 2 6 4.5 9.5 
3787 1 6.5 4 9.5 
3788 1 6.5 4.5 9 
3789 2 7 4 9 
3790 2 7 4.5 9.5 
3791 1 7.5 4 9.5 
3792 2 7.5 4.5 9 
3793 1 8 4 9 
3794 1 8 4.5 9.5 
3795 2 8.5 4 9.5 
3796 2 8.5 4.5 9 
3797 1 9 4 9 
3798 2 9 4.5 9.5 
3799 2 9.5 4 9.5 
3800 2 9.5 4.5 9 
3801 2 0 5 9 
3802 2 0 5.5 9.5 
3803 2 0.5 5 9.5 
3804 2 0.5 5.5 9 
3805 2 1 5 9 
3806 2 1 5.5 9.5 
3807 1 1.5 5 9.5 
3808 1 1.5 5.5 9 
3809 1 2 5 9 
3810 1 2 5.5 9.5 
3811 2 2.5 5 9.5 
3812 1 2.5 5.5 9 
3813 1 3 5 9 
3814 2 3 5.5 9.5 
3815 1 3.5 5 9.5 
3816 2 3.5 5.5 9 
3817 1 4 5 9 
3818 1 4 5.5 9.5 
3819 2 4.5 5 9.5 
3820 2 4.5 5.5 9 
3821 2 5 5 9 
3822 2 5 5.5 9.5 
3823 2 5.5 5 9.5 
3824 2 5.5 5.5 9 
3825 1 6 5 9 
3826 1 6 5.5 9.5 
3827 2 6.5 5 9.5 
3828 2 6.5 5.5 9 
3829 1 7 5 9 
3830 1 7 5.5 9.5 
3831 1 7.5 5 9.5 
3832 2 7.5 5.5 9 
3833 1 8 5 9 
3834 2 8 5.5 9.5 
3835 1 8.5 5 9.5 
3836 1 8.5 5.5 9 
3837 1 9 5 9 
3838 2 9 5.5 9.5 
3839 1 9.5 5 9.5 
3840 2 9.5 5.5 9 
3841 1 0 6 9 
3842 2 0 6.5 9.5 
3843 2 0.5 6 9.5 
3844 2 0.5 6.5 9 
3845 1 1 6 9 
3846 2 1 6.5 9.5 
3847 1 1.5 6 9.5 
3848 1 1.5 6.5 9 
3849 1 2 6 9 
3850 1 2 6.5 9.5 
3851 2 2.5 6 9.5 
3852 1 2.5 6.5 9 
3853 1 3 6 9 
3854 1 3 6.5 9.5 
3855 1 3.5 6 9.5 
3856 1 3.5 6.5 9 
3857 1 4 6 9 
3858 2 4 6.5 9.5 
3859 1 4.5 6 9.5 
3860 2 4.5 6.5 9 
3861 2 5 6 9 
3862 1 5 6.5 9.5 
3863 2 5.5 6 9.5 
3864 1 5.5 6.5 9 
3865 1 6 6 9 
3866 2 6 6.5 9.5 
3867 1 6.5 6 9.5 
3868 2 6.5 6.5 9 
3869 2 7 6 9 
3870 2 7 6.5 9.5 
3871 1 7.5 6 9.5 
3872 1 7.5 6.5 9 
3873 2 8 6 9 
3874 1 8 6.5 9.5 
3875 1 8.5 6 9.5 
3876 1 8.5 6.5 9 
3877 1 9 6 9 
3878 2 9 6.5 9.5 
3879 2 9.5 6 9.5 
3880 1 9.5 6.5 9 
3881 2 0 7 9 
3882 1 0 7.5 9.5 
3883 1 0.5 7 9.5 
3884 2 0.5 7.5 9 
3885 2 1 7 9 
3886 1 1 7.5 9.5 
3887 1 1.5 7 9.5 
3888 2 1.5 7.5 9 
3889 1 2 7 9 
3890 1 2 7.5 9.5 
3891 1 2.5 7 9.5 
3892 1 2.5 7.5 9 
3893 1 3 7 9 
3894 2 3 7.5 9.5 
3895 2 3.5 7 9.5 
3896 2 3.5 7.5 9 
3897 1 4 7 9 
3898 2 4 7.5 9.5 
3899 2 4.5 7 9.5 
3900 1 4.5 7.5 9 
3901 1 5 7 9 
3902 1 5 7.5 9.5 
3903 2 5.5 7 9.5 
3904 2 5.5 7.5 9 
3905 1 6 7 9 
3906 1 6 7.5 9.5 
3907 2 6.5 7 9.5 
3908 1 6.5 7.5 9 
3909 2 7 7 9 
3910 1 7 7.5 9.5 
3911 1 7.5 7 9.5 
3912 1 7.5 7.5 9 
3913 1 8 7 9 
3914 2 8 7.5 9.5 
3915 1 8.5 7 9.5 
3916 1 8.5 7.5 9 
3917 1 9 7 9 
3918 2 9 7.5 9.5 
3919 1 9.5 7 9.5 
3920 2 9.5 7.5 9 
3921 2 0 8 9 
3922 1 0 8.5 9.5 
3923 1 0.5 8 9.5 
3924 1 0.5 8.5 9 
3925 2 1 8 9 
3926 2 1 8.5 9.5 
3927 1 1.5 8 9.5 
3928 1 1.5 8.5 9 
3929 1 2 8 9 
3930 2 2 8.5 9.5 
3931 2 2.5 8 9.5 
3932 1 2.5 8.5 9 
3933 2 3 8 9 
3934 2 3 8.5 9.5 
3935 1 3.5 8 9.5 
3936 2 3.5 8.5 9 
3937 1 4 8 9 
3938 1 4 8.5 9.5 
3939 2 4.5 8 9.5 
3940 2 4.5 8.5 9 
3941 2 5 8 9 
3942 2 5 8.5 9.5 
3943 2 5.5 8 9.5 
3944 1 5.5 8.5 9 
3945 1 6 8 9 
3946 2 6 8.5 9.5 
3947 1 6.5 8 9.5 
3948 1 6.5 8.5 9 
3949 1 7 8 9 
3950 1 7 8.5 9.5 
3951 1 7.5 8 9.5 
3952 1 7.5 8.5 9 
3953 1 8 8 9 
3954 1 8 8.5 9.5 
3955 2 8.5 8 9.5 
3956 2 8.5 8.5 9 
3957 1 9 8 9 
3958 2 9 8.5 9.5 
3959 1 9.5 8 9.5 
3960 1 9.5 8.5 9 
3961 2 0 9 9 
3962 1 0 9.5 9.5 
3963 2 0.5 9 9.5 
3964 1 0.5 9.5 9 
3965 1 1 9 9 
3966 1 1 9.5 9.5 
3967 1 1.5 9 9.5 
3968 2 1.5 9.5 9 
3969 1 2 9 9 
3970 1 2 9.5 9.5 
3971 1 2.5 9 9.5 
3972 1 2.5 9.5 9 
3973 1 3 9 9 
3974 1 3 9.5 9.5 
3975 2 3.5 9 9.5 
3976 1 3.5 9.5 9 
3977 1 4 9 9 
3978 1 4 9.5 9.5 
3979 1 4.5 9 9.5 
3980 2 4.5 9.5 9 
3981 2 5 9 9 
3982 1 5 9.5 9.5 
3983 1 5.5 9 9.5 
3984 2 5.5 9.5 9 
3985 2 6 9 9 
3986 2 6 9.5 9.5 
3987 2 6.5 9 9.5 
3988 1 6.5 9.5 9 
3989 2 7 9 9 
3990 1 7 9.5 9.5 
3991 1 7.5 9 9.5 
3992 2 7.5 9.5 9 
3993 1 8 9 9 
3994 2 8 9.5 9.5 
3995 1 8.5 9 9.5 
3996 2 8.5 9.5 9 
3997 2 9 9 9 
3998 2 9 9.5 9.5 
3999 1 9.5 9 9.5 
4000 1 9.5 9.5 9 
4001 1 0 0 10 
4002 2 0 0.5 10.5 
4003 2 0.5 0 10.5 
4004 2 0.5 0.5 10 
4005 1 1 0 10 
4006 2 1 0.5 10.5 
4007 1 1.5 0 10.5 
4008 1 1.5 0.5 10 
4009 2 2 0 10 
4010 2 2 0.5 10.5 
4011 2 2.5 0 10.5 
4012 1 2.5 0.5 10 
4013 1 3 0 10 
4014 2 3 0.5 10.5 
4015 1 3.5 0 10.5 
4016 2 3.5 0.5 10 
4017 1 4 0 10 
4018 2 4 0.5 10.5 
4019 1 4.5 0 10.5 
4020 1 4.5 0.5 10 
4021 1 5 0 10 
4022 1 5 0.5 10.5 
4023 1 5.5 0 10.5 
4024 2 5.5 0.5 10 
4025 2 6 0 10 
4026 2 6 0.5 10.5 
4027 2 6.5 0 10.5 
4028 1 6.5 0.5 10 
4029 1 7 0 10 
4030 1 7 0.5 10.5 
4031 2 7.5 0 10.5 
4032 2 7.5 0.5 10 
4033 2 8 0 10 
4034 1 8 0.5 10.5 
4035 2 8.5 0 10.5 
4036 2 8.5 0.5 10 
4037 2 9 0 10 
4038 1 9 0.5 10.5 
4039 2 9.5 0 10.5 
4040 1 9.5 0.5 10 
4041 2 0 1 10 
4042 2 0 1.5 10.5 
4043 1 0.5 1 10.5 
4044 1 0.5 1.5 10 
4045 1 1 1 10 
4046 2 1 1.5 10.5 
4047 2 1.5 1 10.5 
4048 2 1.5 1.5 10 
4049 2 2 1 10 
4050 1 2 1.5 10.5 
4051 1 2.5 1 10.5 
4052 2 2.5 1.5 10 
4053 1 3 1 10 
4054 2 3 1.5 10.5 
4055 1 3.5 1 10.5 
4056 2 3.5 1.5 10 
4057 2 4 1 10 
4058 2 4 1.5 10.5 
4059 2 4.5 1 10.5 
4060 2 4.5 1.5 10 
4061 2 5 1 10 
4062 2 5 1.5 10.5 
4063 2 5.5 1 10.5 
4064 2 5.5 1.5 10 
4065 1 6 1 10 
4066 1 6 1.5 10.5 
4067 1 6.5 1 10.5 
4068 1 6.5 1.5 10 
4069 1 7 1 10 
4070 1 7 1.5 10.5 
4071 2 7.5 1 10.5 
4072 2 7.5 1.5 10 
4073 1 8 1 10 
4074 2 8 1.5 10.5 
4075 2 8.5 1 10.5 
4076 1 8.5 1.5 10 
4077 2 9 1 10 
4078 2 9 1.5 10.5 
4079 2 9.5 1 10.5 
4080 1 9.5 1.5 10 
4081 1 0 2 10 
4082 1 0 2.5 10.5 
4083 1 0.5 2 10.5 
4084 2 0.5 2.5 10 
4085 2 1 2 10 
4086 1 1 2.5 10.5 
4087 2 1.5 2 10.5 
4088 1 1.5 2.5 10 
4089 1 2 2 10 
4090 1 2 2.5 10.5 
4091 1 2.5 2 10.5 
4092 1 2.5 2.5 10 
4093 2 3 2 10 
4094 1 3 2.5 10.5 
4095 1 3.5 2 10.5 
4096 1 3.5 2.5 10 
4097 1 4 2 10 
4098 1 4 2.5 10.5 
4099 2 4.5 2 10.5 
4100 1 4.5 2.5 10 
4101 2 5 2 10 
4102 2 5 2.5 10.5 
4103 2 5.5 2 10.5 
4104 2 5.5 2.5 10 
4105 2 6 2 10 
4106 1 6 2.5 10.5 
4107 1 6.5 2 10.5 
4108 2 6.5 2.5 10 
4109 1 7 2 10 
4110 2 7 2.5 10.5 
4111 2 7.5 2 10.5 
4112 2 7.5 2.5 10 
4113 2 8 2 10 
4114 2 8 2.5 10.5 
4115 2 8.5 2 10.5 
4116 2 8.5 2.5 10 
4117 1 9 2 10 
4118 2 9 2.5 10.5 
4119 1 9.5 2 10.5 
4120 2 9.5 2.5 10 
4121 2 0 3 10 
4122 2 0 3.5 10.5 
4123 2 0.5 3 10.5 
4124 1 0.5 3.5 10 
4125 1 1 3 10 
4126 2 1 3.5 10.5 
4127 1 1.5 3 10.5 
4128 1 1.5 3.5 10 
4129 2 2 3 10 
4130 2 2 3.5 10.5 
4131 1 2.5 3 10.5 
4132 1 2.5 3.5 10 
4133 1 3 3 10 
4134 2 3 3.5 10.5 
4135 1 3.5 3 10.5 
4136 1 3.5 3.5 10 
4137 2 4 3 10 
4138 2 4 3.5 10.5 
4139 2 4.5 3 10.5 
4140 1 4.5 3.5 10 
4141 1 5 3 10 
4142 1 5 3.5 10.5 
4143 2 5.5 3 10.5 
4144 2 5.5 3.5 10 
4145 2 6 3 10 
4146 1 6 3.5 10.5 
4147 1 6.5 3 10.5 
4148 1 6.5 3.5 10 
4149 2 7 3 10 
4150 1 7 3.5 10.5 
4151 1 7.5 3 10.5 
4152 1 7.5 3.5 10 
4153 2 8 3 10 
4154 2 8 3.5 10.5 
4155 2 8.5 3 10.5 
4156 1 8.5 3.5 10 
4157 2 9 3 10 
4158 2 9 3.5 10.5 
4159 2 9.5 3 10.5 
4160 2 9.5 3.5 10 
4161 1 0 4 10 
4162 2 0 4.5 10.5 
4163 2 0.5 4 10.5 
4164 1 0.5 4.5 10 
4165 2 1 4 10 
4166 1 1 4.5 10.5 
4167 2 1.5 4 10.5 
4168 2 1.5 4.5 10 
4169 2 2 4 10 
4170 1 2 4.5 10.5 
4171 1 2.5 4 10.5 
4172 2 2.5 4.5 10 
4173 2 3 4 10 
4174 1 3 4.5 10.5 
4175 2 3.5 4 10.5 
4176 2 3.5 4.5 10 
4177 2 4 4 10 
4178 1 4 4.5 10.5 
4179 2 4.5 4 10.5 
4180 2 4.5 4.5 10 
4181 1 5 4 10 
4182 1 5 4.5 10.5 
4183 2 5.5 4 10.5 
4184 2 5.5 4.5 10 
4185 1 6 4 10 
4186 1 6 4.5 10.5 
4187 1 6.5 4 10.5 
4188 1 6.5 4.5 10 
4189 1 7 4 10 
4190 1 7 4.5 10.5 
4191 1 7.5 4 10.5 
4192 1 7.5 4.5 10 
4193 1 8 4 10 
4194 2 8 4.5 10.5 
4195 2 8.5 4 10.5 
4196 2 8.5 4.5 10 
4197 1 9 4 10 
4198 2 9 4.5 10.5 
4199 2 9.5 4 10.5 
4200 1 9.5 4.5 10 
4201 1 0 5 10 
4202 1 0 5.5 10.5 
4203 2 0.5 5 10.5 
4204 1 0.5 5.5 10 
4205 1 1 5 10 
4206 1 1 5.5 10.5 
4207 1 1.5 5 10.5 
4208 2 1.5 5.5 10 
4209 1 2 5 10 
4210 2 2 5.5 10.5 
4211 1 2.5 5 10.5 
4212 2 2.5 5.5 10 
4213 1 3 5 10 
4214 1 3 5.5 10.5 
4215 1 3.5 5 10.5 
4216 2 3.5 5.5 10 
4217 2 4 5 10 
4218 1 4 5.5 10.5 
4219 2 4.5 5 10.5 
4220 1 4.5 5.5 10 
4221 1 5 5 10 
4222 1 5 5.5 10.5 
4223 1 5.5 5 10.5 
4224 1 5.5 5.5 10 
4225 1 6 5 10 
4226 2 6 5.5 10.5 
4227 1 6.5 5 10.5 
4228 1 6.5 5.5 10 
4229 2 7 5 10 
4230 2 7 5.5 10.5 
4231 1 7.5 5 10.5 
4232 2 7.5 5.5 10 
4233 1 8 5 10 
4234 2 8 5.5 10.5 
4235 1 8.5 5 10.5 
4236 2 8.5 5.5 10 
4237 2 9 5 10 
4238 1 9 5.5 10.5 
4239 1 9.5 5 10.5 
4240 2 9.5 5.5 10 
4241 1 0 6 10 
4242 1 0 6.5 10.5 
4243 1 0.5 6 10.5 
4244 1 0.5 6.5 10 
4245 1 1 6 10 
4246 2 1 6.5 10.5 
4247 1 1.5 6 10.5 
4248 1 1.5 6.5 10 
4249 2 2 6 10 
4250 1 2 6.5 10.5 
4251 2 2.5 6 10.5 
4252 2 2.5 6.5 10 
4253 1 3 6 10 
4254 1 3 6.5 10.5 
4255 1 3.5 6 10.5 
4256 1 3.5 6.5 10 
4257 1 4 6 10 
4258 2 4 6.5 10.5 
4259 2 4.5 6 10.5 
4260 1 4.5 6.5 10 
4261 1 5 6 10 
4262 2 5 6.5 10.5 
4263 2 5.5 6 10.5 
4264 2 5.5 6.5 10 
4265 1 6 6 10 
4266 1 6 6.5 10.5 
4267 1 6.5 6 10.5 
4268 2 6.5 6.5 10 
4269 2 7 6 10 
4270 1 7 6.5 10.5 
4271 1 7.5 6 10.5 
4272 2 7.5 6.5 10 
4273 2 8 6 10 
4274 1 8 6.5 10.5 
4275 1 8.5 6 10.5 
4276 1 8.5 6.5 10 
4277 1 9 6 10 
4278 1 9 6.5 10.5 
4279 1 9.5 6 10.5 
4280 2 9.5 6.5 10 
4281 1 0 7 10 
4282 1 0 7.5 10.5 
4283 2 0.5 7 10.5 
4284 1 0.5 7.5 10 
4285 2 1 7 10 
4286 1 1 7.5 10.5 
4287 1 1.5 7 10.5 
4288 1 1.5 7.5 10 
4289 2 2 7 10 
4290 2 2 7.5 10.5 
4291 2 2.5 7 10.5 
4292 2 2.5 7.5 10 
4293 2 3 7 10 
4294 1 3 7.5 10.5 
4295 2 3.5 7 10.5 
4296 1 3.5 7.5 10 
4297 1 4 7 10 
4298 1 4 7.5 10.5 
4299 1 4.5 7 10.5 
4300 2 4.5 7.5 10 
4301 2 5 7 10 
4302 1 5 7.5 10.5 
4303 1 5.5 7 10.5 
4304 2 5.5 7.5 10 
4305 2 6 7 10 
4306 2 6 7.5 10.5 
4307 1 6.5 7 10.5 
4308 1 6.5 7.5 10 
4309 1 7 7 10 
4310 2 7 7.5 10.5 
4311 2 7.5 7 10.5 
4312 1 7.5 7.5 10 
4313 1 8 7 10 
4314 1 8 7.5 10.5 
4315 2 8.5 7 10.5 
4316 2 8.5 7.5 10 
4317 2 9 7 10 
4318 2 9 7.5 10.5 
4319 2 9.5 7 10.5 
4320 1 9.5 7.5 10 
4321 1 0 8 10 
4322 1 0 8.5 10.5 
4323 2 0.5 8 10.5 
4324 1 0.5 8.5 10 
4325 1 1 8 10 
4326 2 1 8.5 10.5 
4327 2 1.5 8 10.5 
4328 2 1.5 8.5 10 
4329 2 2 8 10 
4330 2 2 8.5 10.5 
4331 1 2.5 8 10.5 
4332 1 2.5 8.5 10 
4333 2 3 8 10 
4334 1 3 8.5 10.5 
4335 1 3.5 8 10.5 
4336 2 3.5 8.5 10 
4337 1 4 8 10 
4338 1 4 8.5 10.5 
4339 1 4.5 8 10.5 
4340 2 4.5 8.5 10 
4341 2 5 8 10 
4342 2 5 8.5 10.5 
4343 2 5.5 8 10.5 
4344 2 5.5 8.5 10 
4345 2 6 8 10 
4346 2 6 8.5 10.5 
4347 2 6.5 8 10.5 
4348 2 6.5 8.5 10 
4349 1 7 8 10 
4350 2 7 8.5 10.5 
4351 2 7.5 8 10.5 
4352 2 7.5 8.5 10 
4353 1 8 8 10 
4354 2 8 8.5 10.5 
4355 1 8.5 8 10.5 
4356 2 8.5 8.5 10 
4357 2 9 8 10 
4358 2 9 8.5 10.5 
4359 2 9.5 8 10.5 
4360 1 9.5 8.5 10 
4361 1 0 9 10 
4362 1 0 9.5 10.5 
4363 2 0.5 9 10.5 
4364 1 0.5 9.5 10 
4365 2 1 9 10 
4366 2 1 9.5 10.5 
4367 1 1.5 9 10.5 
4368 1 1.5 9.5 10 
4369 1 2 9 10 
4370 2 2 9.5 10.5 
4371 1 2.5 9 10.5 
4372 1 2.5 9.5 10 
4373 1 3 9 10 
4374 1 3 9.5 10.5 
4375 1 3.5 9 10.5 
4376 1 3.5 9.5 10 
4377 1 4 9 10 
4378 1 4 9.5 10.5 
4379 2 4.5 9 10.5 
4380 1 4.5 9.5 10 
4381 2 5 9 10 
4382 1 5 9.5 10.5 
4383 2 5.5 9 10.5 
4384 1 5.5 9.5 10 
4385 2 6 9 10 
4386 1 6 9.5 10.5 
4387 1 6.5 9 10.5 
4388 1 6.5 9.5 10 
4389 2 7 9 10 
4390 2 7 9.5 10.5 
4391 1 7.5 9 10.5 
4392 2 7.5 9.5 10 
4393 2 8 9 10 
4394 1 8 9.5 10.5 
4395 2 8.5 9 10.5 
4396 2 8.5 9.5 10 
4397 2 9 9 10 
4398 2 9 9.5 10.5 
4399 2 9.5 9 10.5 
4400 1 9.5 9.5 10 
4401 2 0 0 11 
4402 2 0 0.5 11.5 
4403 2 0.5 0 11.5 
4404 2 0.5 0.5 11 
4405 2 1 0 11 
4406 1 1 0.5 11.5 
4407 1 1.5 0 11.5 
4408 2 1.5 0.5 11 
4409 2 2 0 11 
4410 1 2 0.5 11.5 
4411 1 2.5 0 11.5 
4412 1 2.5 0.5 11 
4413 2 3 0 11 
4414 2 3 0.5 11.5 
4415 2 3.5 0 11.5 
4416 1 3.5 0.5 11 
4417 1 4 0 11 
4418 1 4 0.5 11.5 
4419 2 4.5 0 11.5 
4420 2 4.5 0.5 11 
4421 2 5 0 11 
4422 2 5 0.5 11.5 
4423 1 5.5 0 11.5 
4424 1 5.5 0.5 11 
4425 1 6 0 11 
4426 1 6 0.5 11.5 
4427 2 6.5 0 11.5 
4428 1 6.5 0.5 11 
4429 1 7 0 11 
4430 1 7 0.5 11.5 
4431 1 7.5 0 11.5 
4432 2 7.5 0.5 11 
4433 2 8 0 11 
4434 1 8 0.5 11.5 
4435 1 8.5 0 11.5 
4436 2 8.5 0.5 11 
4437 2 9 0 11 
4438 2 9 0.5 11.5 
4439 2 9.5 0 11.5 
4440 2 9.5 0.5 11 
4441 2 0 1 11 
4442 2 0 1.5 11.5 
4443 1 0.5 1 11.5 
4444 1 0.5 1.5 11 
4445 2 1 1 11 
4446 1 1 1.5 11.5 
4447 1 1.5 1 11.5 
4448 2 1.5 1.5 11 
4449 1 2 1 11 
4450 2 2 1.5 11.5 
4451 2 2.5 1 11.5 
4452 1 2.5 1.5 11 
4453 1 3 1 11 
4454 1 3 1.5 11.5 
4455 2 3.5 1 11.5 
4456 2 3.5 1.5 11 
4457 1 4 1 11 
4458 1 4 1.5 11.5 
4459 1 4.5 1 11.5 
4460 1 4.5 1.5 11 
4461 1 5 1 11 
4462 2 5 1.5 11.5 
4463 2 5.5 1 11.5 
4464 2 5.5 1.5 11 
4465 1 6 1 11 
4466 1 6 1.5 11.5 
4467 2 6.5 1 11.5 
4468 1 6.5 1.5 11 
4469 1 7 1 11 
4470 2 7 1.5 11.5 
4471 1 7.5 1 11.5 
4472 1 7.5 1.5 11 
4473 2 8 1 11 
4474 2 8 1.5 11.5 
4475 1 8.5 1 11.5 
4476 2 8.5 1.5 11 
4477 2 9 1 11 
4478 1 9 1.5 11.5 
4479 1 9.5 1 11.5 
4480 1 9.5 1.5 11 
4481 1 0 2 11 
4482 1 0 2.5 11.5 
4483 1 0.5 2 11.5 
4484 1 0.5 2.5 11 
4485 1 1 2 11 
4486 1 1 2.5 11.5 
4487 2 1.5 2 11.5 
4488 1 1.5 2.5 11 
4489 2 2 2 11 
4490 2 2 2.5 11.5 
4491 2 2.5 2 11.5 
4492 1 2.5 2.5 11 
4493 1 3 2 11 
4494 2 3 2.5 11.5 
4495 2 3.5 2 11.5 
4496 2 3.5 2.5 11 
4497 1 4 2 11 
4498 1 4 2.5 11.5 
4499 1 4.5 2 11.5 
4500 1 4.5 2.5 11 
4501 2 5 2 11 
4502 1 5 2.5 11.5 
4503 1 5.5 2 11.5 
4504 1 5.5 2.5 11 
4505 1 6 2 11 
4506 1 6 2.5 11.5 
4507 1 6.5 2 11.5 
4508 1 6.5 2.5 11 
4509 1 7 2 11 
4510 1 7 2.5 11.5 
4511 1 7.5 2 11.5 
4512 2 7.5 2.5 11 
4513 2 8 2 11 
4514 1 8 2.5 11.5 
4515 1 8.5 2 11.5 
4516 2 8.5 2.5 11 
4517 1 9 2 11 
4518 2 9 2.5 11.5 
4519 1 9.5 2 11.5 
4520 1 9.5 2.5 11 
4521 1 0 3 11 
4522 2 0 3.5 11.5 
4523 2 0.5 3 11.5 
4524 1 0.5 3.5 11 
4525 1 1 3 11 
4526 1 1 3.5 11.5 
4527 1 1.5 3 11.5 
4528 1 1.5 3.5 11 
4529 1 2 3 11 
4530 2 2 3.5 11.5 
4531 1 2.5 3 11.5 
4532 2 2.5 3.5 11 
4533 2 3 3 11 
4534 2 3 3.5 11.5 
4535 2 3.5 3 11.5 
4536 2 3.5 3.5 11 
4537 1 4 3 11 
4538 2 4 3.5 11.5 
4539 1 4.5 3 11.5 
4540 2 4.5 3.5 11 
4541 2 5 3 11 
4542 1 5 3.5 11.5 
4543 1 5.5 3 11.5 
4544 2 5.5 3.5 11 
4545 1 6 3 11 
4546 1 6 3.5 11.5 
4547 2 6.5 3 11.5 
4548 2 6.5 3.5 11 
4549 2 7 3 11 
4550 1 7 3.5 11.5 
4551 2 7.5 3 11.5 
4552 1 7.5 3.5 11 
4553 1 8 3 11 
4554 2 8 3.5 11.5 
4555 1 8.5 3 11.5 
4556 2 8.5 3.5 11 
4557 2 9 3 11 
4558 2 9 3.5 11.5 
4559 2 9.5 3 11.5 
4560 1 9.5 3.5 11 
4561 1 0 4 11 
4562 1 0 4.5 11.5 
4563 1 0.5 4 11.5 
4564 1 0.5 4.5 11 
4565 1 1 4 11 
4566 2 1 4.5 11.5 
4567 2 1.5 4 11.5 
4568 2 1.5 4.5 11 
4569 2 2 4 11 
4570 1 2 4.5 11.5 
4571 2 2.5 4 11.5 
4572 2 2.5 4.5 11 
4573 1 3 4 11 
4574 1 3 4.5 11.5 
4575 1 3.5 4 11.5 
4576 2 3.5 4.5 11 
4577 1 4 4 11 
4578 1 4 4.5 11.5 
4579 2 4.5 4 11.5 
4580 1 4.5 4.5 11 
4581 2 5 4 11 
4582 1 5 4.5 11.5 
4583 1 5.5 4 11.5 
4584 2 5.5 4.5 11 
4585 2 6 4 11 
4586 2 6 4.5 11.5 
4587 1 6.5 4 11.5 
4588 1 6.5 4.5 11 
4589 1 7 4 11 
4590 1 7 4.5 11.5 
4591 2 7.5 4 11.5 
4592 1 7.5 4.5 11 
4593 1 8 4 11 
4594 2 8 4.5 11.5 
4595 2 8.5 4 11.5 
4596 1 8.5 4.5 11 
4597 2 9 4 11 
4598 2 9 4.5 11.5 
4599 1 9.5 4 11.5 
4600 2 9.5 4.5 11 
4601 2 0 5 11 
4602 2 0 5.5 11.5 
4603 1 0.5 5 11.5 
4604 1 0.5 5.5 11 
4605 1 1 5 11 
4606 1 1 5.5 11.5 
4607 1 1.5 5 11.5 
4608 1 1.5 5.5 11 
4609 1 2 5 11 
4610 1 2 5.5 11.5 
4611 2 2.5 5 11.5 
4612 1 2.5 5.5 11 
4613 1 3 5 11 
4614 2 3 5.5 11.5 
4615 1 3.5 5 11.5 
4616 1 3.5 5.5 11 
4617 1 4 5 11 
4618 1 4 5.5 11.5 
4619 2 4.5 5 11.5 
4620 1 4.5 5.5 11 
4621 1 5 5 11 
4622 2 5 5.5 11.5 
4623 1 5.5 5 11.5 
4624 2 5.5 5.5 11 
4625 1 6 5 11 
4626 2 6 5.5 11.5 
4627 1 6.5 5 11.5 
4628 1 6.5 5.5 11 
4629 1 7 5 11 
4630 1 7 5.5 11.5 
4631 1 7.5 5 11.5 
4632 2 7.5 5.5 11 
4633 2 8 5 11 
4634 1 8 5.5 11.5 
4635 2 8.5 5 11.5 
4636 1 8.5 5.5 11 
4637 2 9 5 11 
4638 1 9 5.5 11.5 
4639 1 9.5 5 11.5 
4640 2 9.5 5.5 11 
4641 2 0 6 11 
4642 1 0 6.5 11.5 
4643 1 0.5 6 11.5 
4644 1 0.5 6.5 11 
4645 1 1 6 11 
4646 1 1 6.5 11.5 
4647 1 1.5 6 11.5 
4648 1 1.5 6.5 11 
4649 1 2 6 11 
4650 1 2 6.5 11.5 
4651 1 2.5 6 11.5 
4652 2 2.5 6.5 11 
4653 2 3 6 11 
4654 2 3 6.5 11.5 
4655 1 3.5 6 11.5 
4656 1 3.5 6.5 11 
4657 2 4 6 11 
4658 1 4 6.5 11.5 
4659 2 4.5 6 11.5 
4660 2 4.5 6.5 11 
4661 1 5 6 11 
4662 1 5 6.5 11.5 
4663 1 5.5 6 11.5 
4664 2 5.5 6.5 11 
4665 1 6 6 11 
4666 1 6 6.5 11.5 
4667 1 6.5 6 11.5 
4668 2 6.5 6.5 11 
4669 1 7 6 11 
4670 2 7 6.5 11.5 
4671 2 7.5 6 11.5 
4672 1 7.5 6.5 11 
4673 1 8 6 11 
4674 2 8 6.5 11.5 
4675 1 8.5 6 11.5 
4676 1 8.5 6.5 11 
4677 1 9 6 11 
4678 2 9 6.5 11.5 
4679 1 9.5 6 11.5 
4680 1 9.5 6.5 11 
4681 1 0 7 11 
4682 1 0 7.5 11.5 
4683 2 0.5 7 11.5 
4684 1 0.5 7.5 11 
4685 2 1 7 11 
4686 1 1 7.5 11.5 
4687 1 1.5 7 11.5 
4688 1 1.5 7.5 11 
4689 1 2 7 11 
4690 1 2 7.5 11.5 
4691 2 2.5 7 11.5 
4692 2 2.5 7.5 11 
4693 2 3 7 11 
4694 1 3 7.5 11.5 
4695 1 3.5 7 11.5 
4696 2 3.5 7.5 11 
4697 1 4 7 11 
4698 2 4 7.5 11.5 
4699 1 4.5 7 11.5 
4700 2 4.5 7.5 11 
4701 2 5 7 11 
4702 2 5 7.5 11.5 
4703 2 5.5 7 11.5 
4704 1 5.5 7.5 11 
4705 1 6 7 11 
4706 1 6 7.5 11.5 
4707 1 6.5 7 11.5 
4708 1 6.5 7.5 11 
4709 2 7 7 11 
4710 2 7 7.5 11.5 
4711 2 7.5 7 11.5 
4712 1 7.5 7.5 11 
4713 1 8 7 11 
4714 1 8 7.5 11.5 
4715 1 8.5 7 11.5 
4716 2 8.5 7.5 11 
4717 1 9 7 11 
4718 1 9 7.5 11.5 
4719 1 9.5 7 11.5 
4720 2 9.5 7.5 11 
4721 2 0 8 11 
4722 1 0 8.5 11.5 
4723 2 0.5 8 11.5 
4724 1 0.5 8.5 11 
4725 2 1 8 11 
4726 1 1 8.5 11.5 
4727 1 1.5 8 11.5 
4728 1 1.5 8.5 11 
4729 1 2 8 11 
4730 2 2 8.5 11.5 
4731 2 2.5 8 11.5 
4732 1 2.5 8.5 11 
4733 1 3 8 11 
4734 1 3 8.5 11.5 
4735 2 3.5 8 11.5 
4736 1 3.5 8.5 11 
4737 1 4 8 11 
4738 1 4 8.5 11.5 
4739 2 4.5 8 11.5 
4740 2 4.5 8.5 11 
4741 2 5 8 11 
4742 1 5 8.5 11.5 
4743 1 5.5 8 11.5 
4744 2 5.5 8.5 11 
4745 1 6 8 11 
4746 1 6 8.5 11.5 
4747 2 6.5 8 11.5 
4748 1 6.5 8.5 11 
4749 1 7 8 11 
4750 2 7 8.5 11.5 
4751 2 7.5 8 11.5 
4752 2 7.5 8.5 11 
4753 2 8 8 11 
4754 1 8 8.5 11.5 
4755 2 8.5 8 11.5 
4756 2 8.5 8.5 11 
4757 1 9 8 11 
4758 1 9 8.5 11.5 
4759 1 9.5 8 11.5 
4760 1 9.5 8.5 11 
4761 2 0 9 11 
4762 2 0 9.5 11.5 
4763 1 0.5 9 11.5 
4764 2 0.5 9.5 11 
4765 1 1 9 11 
4766 1 1 9.5 11.5 
4767 2 1.5 9 11.5 
4768 1 1.5 9.5 11 
4769 1 2 9 11 
4770 2 2 9.5 11.5 
4771 2 2.5 9 11.5 
4772 2 2.5 9.5 11 
4773 1 3 9 11 
4774 1 3 9.5 11.5 
4775 1 3.5 9 11.5 
4776 2 3.5 9.5 11 
4777 2 4 9 11 
4778 1 4 9.5 11.5 
4779 2 4.5 9 11.5 
4780 2 4.5 9.5 11 
4781 1 5 9 11 
4782 2 5 9.5 11.5 
4783 1 5.5 9 11.5 
4784 1 5.5 9.5 11 
4785 1 6 9 11 
4786 1 6 9.5 11.5 
4787 2 6.5 9 11.5 
4788 1 6.5 9.5 11 
4789 2 7 9 11 
4790 1 7 9.5 11.5 
4791 2 7.5 9 11.5 
4792 1 7.5 9.5 11 
4793 1 8 9 11 
4794 1 8 9.5 11.5 
4795 2 8.5 9 11.5 
4796 2 8.5 9.5 11 
4797 1 9 9 11 
4798 2 9 9.5 11.5 
4799 1 9.5 9 11.5 
4800 2 9.5 9.5 11 
4801 2 0 0 12 
4802 1 0 0.5 12.5 
4803 1 0.5 0 12.5 
4804 1 0.5 0.5 12 
4805 1 1 0 12 
4806 1 1 0.5 12.5 
4807 1 1.5 0 12.5 
4808 1 1.5 0.5 12 
4809 1 2 0 12 
4810 1 2 0.5 12.5 
4811 1 2.5 0 12.5 
4812 1 2.5 0.5 12 
4813 1 3 0 12 
4814 1 3 0.5 12.5 
4815 2 3.5 0 12.5 
4816 2 3.5 0.5 12 
4817 1 4 0 12 
4818 2 4 0.5 12.5 
4819 2 4.5 0 12.5 
4820 2 4.5 0.5 12 
4821 1 5 0 12 
4822 1 5 0.5 12.5 
4823 1 5.5 0 12.5 
4824 1 5.5 0.5 12 
4825 1 6 0 12 
4826 1 6 0.5 12.5 
4827 1 6.5 0 12.5 
4828 1 6.5 0.5 12 
4829 2 7 0 12 
4830 1 7 0.5 12.5 
4831 1 7.5 0 12.5 
4832 1 7.5 0.5 12 
4833 1 8 0 12 
4834 2 8 0.5 12.5 
4835 1 8.5 0 12.5 
4836 2 8.5 0.5 12 
4837 1 9 0 12 
4838 1 9 0.5 12.5 
4839 2 9.5 0 12.5 
4840 2 9.5 0.5 12 
4841 2 0 1 12 
4842 2 0 1.5 12.5 
4843 1 0.5 1 12.5 
4844 1 0.5 1.5 12 
4845 1 1 1 12 
4846 1 1 1.5 12.5 
4847 1 1.5 1 12.5 
4848 1 1.5 1.5 12 
4849 2 2 1 12 
4850 1 2 1.5 12.5 
4851 1 2.5 1 12.5 
4852 1 2.5 1.5 12 
4853 2 3 1 12 
4854 1 3 1.5 12.5 
4855 2 3.5 1 12.5 
4856 1 3.5 1.5 12 
4857 1 4 1 12 
4858 1 4 1.5 12.5 
4859 1 4.5 1 12.5 
4860 1 4.5 1.5 12 
4861 1 5 1 12 
4862 1 5 1.5 12.5 
4863 2 5.5 1 12.5 
4864 1 5.5 1.5 12 
4865 2 6 1 12 
4866 2 6 1.5 12.5 
4867 1 6.5 1 12.5 
4868 1 6.5 1.5 12 
4869 2 7 1 12 
4870 1 7 1.5 12.5 
4871 1 7.5 1 12.5 
4872 1 7.5 1.5 12 
4873 1 8 1 12 
4874 1 8 1.5 12.5 
4875 2 8.5 1 12.5 
4876 1 8.5 1.5 12 
4877 1 9 1 12 
4878 1 9 1.5 12.5 
4879 1 9.5 1 12.5 
4880 1 9.5 1.5 12 
4881 1 0 2 12 
4882 1 0 2.5 12.5 
4883 1 0.5 2 12.5 
4884 2 0.5 2.5 12 
4885 2 1 2 12 
4886 1 1 2.5 12.5 
4887 1 1.5 2 12.5 
4888 1 1.5 2.5 12 
4889 1 2 2 12 
4890 1 2 2.5 12.5 
4891 1 2.5 2 12.5 
4892 1 2.5 2.5 12 
4893 1 3 2 12 
4894 2 3 2.5 12.5 
4895 1 3.5 2 12.5 
4896 2 3.5 2.5 12 
4897 1 4 2 12 
4898 2 4 2.5 12.5 
4899 1 4.5 2 12.5 
4900 2 4.5 2.5 12 
4901 1 5 2 12 
4902 1 5 2.5 12.5 
4903 1 5.5 2 12.5 
4904 1 5.5 2.5 12 
4905 1 6 2 12 
4906 1 6 2.5 12.5 
4907 1 6.5 2 12.5 
4908 2 6.5 2.5 12 
4909 2 7 2 12 
4910 2 7 2.5 12.5 
4911 1 7.5 2 12.5 
4912 2 7.5 2.5 12 
4913 2 8 2 12 
4914 2 8 2.5 12.5 
4915 2 8.5 2 12.5 
4916 1 8.5 2.5 12 
4917 1 9 2 12 
4918 1 9 2.5 12.5 
4919 2 9.5 2 12.5 
4920 1 9.5 2.5 12 
4921 2 0 3 12 
4922 1 0 3.5 12.5 
4923 1 0.5 3 12.5 
4924 1 0.5 3.5 12 
4925 1 1 3 12 
4926 1 1 3.5 12.5 
4927 2 1.5 3 12.5 
4928 1 1.5 3.5 12 
4929 1 2 3 12 
4930 2 2 3.5 12.5 
4931 2 2.5 3 12.5 
4932 2 2.5 3.5 12 
4933 2 3 3 12 
4934 2 3 3.5 12.5 
4935 1 3.5 3 12.5 
4936 1 3.5 3.5 12 
4937 2 4 3 12 
4938 1 4 3.5 12.5 
4939 1 4.5 3 12.5 
4940 1 4.5 3.5 12 
4941 1 5 3 12 
4942 1 5 3.5 12.5 
4943 1 5.5 3 12.5 
4944 1 5.5 3.5 12 
4945 1 6 3 12 
4946 1 6 3.5 12.5 
4947 2 6.5 3 12.5 
4948 1 6.5 3.5 12 
4949 2 7 3 12 
4950 2 7 3.5 12.5 
4951 1 7.5 3 12.5 
4952 1 7.5 3.5 12 
4953 2 8 3 12 
4954 1 8 3.5 12.5 
4955 2 8.5 3 12.5 
4956 1 8.5 3.5 12 
4957 2 9 3 12 
4958 1 9 3.5 12.5 
4959 1 9.5 3 12.5 
4960 1 9.5 3.5 12 
4961 1 0 4 12 
4962 1 0 4.5 12.5 
4963 1 0.5 4 12.5 
4964 2 0.5 4.5 12 
4965 1 1 4 12 
4966 2 1 4.5 12.5 
4967 1 1.5 4 12.5 
4968 1 1.5 4.5 12 
4969 1 2 4 12 
4970 1 2 4.5 12.5 
4971 2 2.5 4 12.5 
4972 2 2.5 4.5 12 
4973 1 3 4 12 
4974 1 3 4.5 12.5 
4975 1 3.5 4 12.5 
4976 1 3.5 4.5 12 
4977 1 4 4 12 
4978 1 4 4.5 12.5 
4979 2 4.5 4 12.5 
4980 2 4.5 4.5 12 
4981 2 5 4 12 
4982 1 5 4.5 12.5 
4983 2 5.5 4 12.5 
4984 1 5.5 4.5 12 
4985 2 6 4 12 
4986 1 6 4.5 12.5 
4987 1 6.5 4 12.5 
4988 1 6.5 4.5 12 
4989 2 7 4 12 
4990 2 7 4.5 12.5 
4991 1 7.5 4 12.5 
4992 1 7.5 4.5 12 
4993 2 8 4 12 
4994 2 8 4.5 12.5 
4995 1 8.5 4 12.5 
4996 1 8.5 4.5 12 
4997 1 9 4 12 
4998 1 9 4.5 12.5 
4999 1 9.5 4 12.5 
5000 1 9.5 4.5 12 
5001 1 0 5 12 
5002 2 0 5.5 12.5 
5003 1 0.5 5 12.5 
5004 1 0.5 5.5 12 
5005 1 1 5 12 
5006 1 1 5.5 12.5 
5007 1 1.5 5 12.5 
5008 2 1.5 5.5 12 
5009 2 2 5 12 
5010 1 2 5.5 12.5 
5011 1 2.5 5 12.5 
5012 1 2.5 5.5 12 
5013 1 3 5 12 
5014 1 3 5.5 12.5 
5015 1 3.5 5 12.5 
5016 1 3.5 5.5 12 
5017 2 4 5 12 
5018 1 4 5.5 12.5 
5019 1 4.5 5 12.5 
5020 2 4.5 5.5 12 
5021 2 5 5 12 
5022 1 5 5.5 12.5 
5023 1 5.5 5 12.5 
5024 2 5.5 5.5 12 
5025 1 6 5 12 
5026 2 6 5.5 12.5 
5027 1 6.5 5 12.5 
5028 2 6.5 5.5 12 
5029 1 7 5 12 
5030 1 7 5.5 12.5 
5031 1 7.5 5 12.5 
5032 1 7.5 5.5 12 
5033 2 8 5 12 
5034 2 8 5.5 12.5 
5035 2 8.5 5 12.5 
5036 1 8.5 5.5 12 
5037 2 9 5 12 
5038 1 9 5.5 12.5 
5039 2 9.5 5 12.5 
5040 1 9.5 5.5 12 
5041 2 0 6 12 
5042 2 0 6.5 12.5 
5043 1 0.5 6 12.5 
5044 2 0.5 6.5 12 
5045 1 1 6 12 
5046 1 1 6.5 12.5 
5047 1 1.5 6 12.5 
5048 1 1.5 6.5 12 
5049 1 2 6 12 
5050 1 2 6.5 12.5 
5051 1 2.5 6 12.5 
5052 1 2.5 6.5 12 
5053 1 3 6 12 
5054 2 3 6.5 12.5 
5055 1 3.5 6 12.5 
5056 2 3.5 6.5 12 
5057 2 4 6 12 
5058 2 4 6.5 12.5 
5059 1 4.5 6 12.5 
5060 1 4.5 6.5 12 
5061 1 5 6 12 
5062 1 5 6.5 12.5 
5063 2 5.5 6 12.5 
5064 1 5.5 6.5 12 
5065 2 6 6 12 
5066 1 6 6.5 12.5 
5067 2 6.5 6 12.5 
5068 1 6.5 6.5 12 
5069 1 7 6 12 
5070 2 7 6.5 12.5 
5071 1 7.5 6 12.5 
5072 2 7.5 6.5 12 
5073 2 8 6 12 
5074 1 8 6.5 12.5 
5075 2 8.5 6 12.5 
5076 1 8.5 6.5 12 
5077 1 9 6 12 
5078 2 9 6.5 12.5 
5079 1 9.5 6 12.5 
5080 1 9.5 6.5 12 
5081 1 0 7 12 
5082 1 0 7.5 12.5 
5083 2 0.5 7 12.5 
5084 2 0.5 7.5 12 
5085 2 1 7 12 
5086 1 1 7.5 12.5 
5087 2 1.5 7 12.5 
5088 1 1.5 7.5 12 
5089 1 2 7 12 
5090 1 2 7.5 12.5 
5091 1 2.5 7 12.5 
5092 1 2.5 7.5 12 
5093 2 3 7 12 
5094 1 3 7.5 12.5 
5095 1 3.5 7 12.5 
5096 2 3.5 7.5 12 
5097 1 4 7 12 
5098 1 4 7.5 12.5 
5099 1 4.5 7 12.5 
5100 2 4.5 7.5 12 
5101 2 5 7 12 
5102 1 5 7.5 12.5 
5103 1 5.5 7 12.5 
5104 2 5.5 7.5 12 
5105 1 6 7 12 
5106 1 6 7.5 12.5 
5107 1 6.5 7 12.5 
5108 1 6.5 7.5 12 
5109 1 7 7 12 
5110 2 7 7.5 12.5 
5111 2 7.5 7 12.5 
5112 1 7.5 7.5 12 
5113 2 8 7 12 
5114 1 8 7.5 12.5 
5115 2 8.5 7 12.5 
5116 2 8.5 7.5 12 
5117 2 9 7 12 
5118 1 9 7.5 12.5 
5119 1 9.5 7 12.5 
5120 1 9.5 7.5 12 
5121 1 0 8 12 
5122 1 0 8.5 12.5 
5123 1 0.5 8 12.5 
5124 2 0.5 8.5 12 
5125 1 1 8 12 
5126 1 1 8.5 12.5 
5127 1 1.5 8 12.5 
5128 2 1.5 8.5 12 
5129 2 2 8 12 
5130 2 2 8.5 12.5 
5131 2 2.5 8 12.5 
5132 1 2.5 8.5 12 
5133 2 3 8 12 
5134 1 3 8.5 12.5 
5135 1 3.5 8 12.5 
5136 1 3.5 8.5 12 
5137 1 4 8 12 
5138 1 4 8.5 12.5 
5139 1 4.5 8 12.5 
5140 1 4.5 8.5 12 
5141 1 5 8 12 
5142 1 5 8.5 12.5 
5143 1 5.5 8 12.5 
5144 1 5.5 8.5 12 
5145 1 6 8 12 
5146 2 6 8.5 12.5 
5147 1 6.5 8 12.5 
5148 1 6.5 8.5 12 
5149 2 7 8 12 
5150 2 7 8.5 12.5 
5151 1 7.5 8 12.5 
5152 2 7.5 8.5 12 
5153 2 8 8 12 
5154 2 8 8.5 12.5 
5155 2 8.5 8 12.5 
5156 1 8.5 8.5 12 
5157 1 9 8 12 
5158 1 9 8.5 12.5 
5159 1 9.5 8 12.5 
5160 1 9.5 8.5 12 
5161 2 0 9 12 
5162 2 0 9.5 12.5 
5163 1 0.5 9 12.5 
5164 1 0.5 9.5 12 
5165 1 1 9 12 
5166 2 1 9.5 12.5 
5167 1 1.5 9 12.5 
5168 2 1.5 9.5 12 
5169 1 2 9 12 
5170 1 2 9.5 12.5 
5171 2 2.5 9 12.5 
5172 1 2.5 9.5 12 
5173 2 3 9 12 
5174 2 3 9.5 12.5 
5175 1 3.5 9 12.5 
5176 1 3.5 9.5 12 
5177 2 4 9 12 
5178 2 4 9.5 12.5 
5179 1 4.5 9 12.5 
5180 1 4.5 9.5 12 
5181 1 5 9 12 
5182 2 5 9.5 12.5 
5183 1 5.5 9 12.5 
5184 1 5.5 9.5 12 
5185 1 6 9 12 
5186 1 6 9.5 12.5 
5187 2 6.5 9 12.5 
5188 2 6.5 9.5 12 
5189 1 7 9 12 
5190 1 7 9.5 12.5 
5191 1 7.5 9 12.5 
5192 1 7.5 9.5 12 
5193 1 8 9 12 
5194 1 8 9.5 12.5 
5195 1 8.5 9 12.5 
5196 1 8.5 9.5 12 
5197 1 9 9 12 
5198 1 9 9.5 12.5 
5199 2 9.5 9 12.5 
5200 2 9.5 9.5 12 
5201 2 0 0 13 
5202 2 0 0.5 13.5 
5203 1 0.5 0 13.5 
5204 2 0.5 0.5 13 
5205 1 1 0 13 
5206 1 1 0.5 13.5 
5207 1 1.5 0 13.5 
5208 1 1.5 0.5 13 
5209 1 2 0 13 
5210 1 2 0.5 13.5 
5211 1 2.5 0 13.5 
5212 2 2.5 0.5 13 
5213 1 3 0 13 
5214 1 3 0.5 13.5 
5215 2 3.5 0 13.5 
5216 2 3.5 0.5 13 
5217 1 4 0 13 
5218 2 4 0.5 13.5 
5219 1 4.5 0 13.5 
5220 2 4.5 0.5 13 
5221 1 5 0 13 
5222 1 5 0.5 13.5 
5223 2 5.5 0 13.5 
5224 2 5.5 0.5 13 
5225 1 6 0 13 
5226 1 6 0.5 13.5 
5227 1 6.5 0 13.5 
5228 1 6.5 0.5 13 
5229 1 7 0 13 
5230 1 7 0.5 13.5 
5231 1 7.5 0 13.5 
5232 2 7.5 0.5 13 
5233 1 8 0 13 
5234 1 8 0.5 13.5 
5235 1 8.5 0 13.5 
5236 1 8.5 0.5 13 
5237 1 9 0 13 
5238 1 9 0.5 13.5 
5239 1 9.5 0 13.5 
5240 1 9.5 0.5 13 
5241 1 0 1 13 
5242 1 0 1.5 13.5 
5243 1 0.5 1 13.5 
5244 2 0.5 1.5 13 
5245 1 1 1 13 
5246 2 1 1.5 13.5 
5247 1 1.5 1 13.5 
5248 1 1.5 1.5 13 
5249 1 2 1 13 
5250 1 2 1.5 13.5 
5251 1 2.5 1 13.5 
5252 2 2.5 1.5 13 
5253 1 3 1 13 
5254 1 3 1.5 13.5 
5255 1 3.5 1 13.5 
5256 1 3.5 1.5 13 
5257 1 4 1 13 
5258 1 4 1.5 13.5 
5259 1 4.5 1 13.5 
5260 1 4.5 1.5 13 
5261 1 5 1 13 
5262 1 5 1.5 13.5 
5263 2 5.5 1 13.5 
5264 1 5.5 1.5 13 
5265 1 6 1 13 
5266 1 6 1.5 13.5 
5267 2 6.5 1 13.5 
5268 1 6.5 1.5 13 
5269 2 7 1 13 
5270 2 7 1.5 13.5 
5271 2 7.5 1 13.5 
5272 2 7.5 1.5 13 
5273 1 8 1 13 
5274 2 8 1.5 13.5 
5275 1 8.5 1 13.5 
5276 2 8.5 1.5 13 
5277 1 9 1 13 
5278 1 9 1.5 13.5 
5279 2 9.5 1 13.5 
5280 1 9.5 1.5 13 
5281 1 0 2 13 
5282 1 0 2.5 13.5 
5283 2 0.5 2 13.5 
5284 1 0.5 2.5 13 
5285 2 1 2 13 
5286 2 1 2.5 13.5 
5287 1 1.5 2 13.5 
5288 1 1.5 2.5 13 
5289 1 2 2 13 
5290 1 2 2.5 13.5 
5291 1 2.5 2 13.5 
5292 1 2.5 2.5 13 
5293 1 3 2 13 
5294 1 3 2.5 13.5 
5295 2 3.5 2 13.5 
5296 1 3.5 2.5 13 
5297 2 4 2 13 
5298 2 4 2.5 13.5 
5299 1 4.5 2 13.5 
5300 1 4.5 2.5 13 
5301 1 5 2 13 
5302 1 5 2.5 13.5 
5303 1 5.5 2 13.5 
5304 1 5.5 2.5 13 
5305 1 6 2 13 
5306 1 6 2.5 13.5 
5307 1 6.5 2 13.5 
5308 1 6.5 2.5 13 
5309 1 7 2 13 
5310 1 7 2.5 13.5 
5311 1 7.5 2 13.5 
5312 2 7.5 2.5 13 
5313 2 8 2 13 
5314 1 8 2.5 13.5 
5315 1 8.5 2 13.5 
5316 2 8.5 2.5 13 
5317 1 9 2 13 
5318 1 9 2.5 13.5 
5319 1 9.5 2 13.5 
5320 1 9.5 2.5 13 
5321 2 0 3 13 
5322 1 0 3.5 13.5 
5323 1 0.5 3 13.5 
5324 2 0.5 3.5 13 
5325 1 1 3 13 
5326 2 1 3.5 13.5 
5327 1 1.5 3 13.5 
5328 2 1.5 3.5 13 
5329 2 2 3 13 
5330 1 2 3.5 13.5 
5331 1 2.5 3 13.5 
5332 1 2.5 3.5 13 
5333 1 3 3 13 
5334 1 3 3.5 13.5 
5335 1 3.5 3 13.5 
5336 1 3.5 3.5 13 
5337 2 4 3 13 
5338 1 4 3.5 13.5 
5339 1 4.5 3 13.5 
5340 2 4.5 3.5 13 
5341 1 5 3 13 
5342 1 5 3.5 13.5 
5343 1 5.5 3 13.5 
5344 1 5.5 3.5 13 
5345 1 6 3 13 
5346 2 6 3.5 13.5 
5347 1 6.5 3 13.5 
5348 2 6.5 3.5 13 
5349 1 7 3 13 
5350 1 7 3.5 13.5 
5351 2 7.5 3 13.5 
5352 1 7.5 3.5 13 
5353 1 8 3 13 
5354 1 8 3.5 13.5 
5355 1 8.5 3 13.5 
5356 1 8.5 3.5 13 
5357 2 9 3 13 
5358 1 9 3.5 13.5 
5359 2 9.5 3 13.5 
5360 2 9.5 3.5 13 
5361 2 0 4 13 
5362 1 0 4.5 13.5 
5363 2 0.5 4 13.5 
5364 1 0.5 4.5 13 
5365 1 1 4 13 
5366 1 1 4.5 13.5 
5367 1 1.5 4 13.5 
5368 1 1.5 4.5 13 
5369 1 2 4 13 
5370 1 2 4.5 13.5 
5371 2 2.5 4 13.5 
5372 2 2.5 4.5 13 
5373 1 3 4 13 
5374 2 3 4.5 13.5 
5375 1 3.5 4 13.5 
5376 1 3.5 4.5 13 
5377 1 4 4 13 
5378 1 4 4.5 13.5 
5379 1 4.5 4 13.5 
5380 2 4.5 4.5 13 
5381 1 5 4 13 
5382 1 5 4.5 13.5 
5383 1 5.5 4 13.5 
5384 2 5.5 4.5 13 
5385 2 6 4 13 
5386 2 6 4.5 13.5 
5387 2 6.5 4 13.5 
5388 1 6.5 4.5 13 
5389 1 7 4 13 
5390 2 7 4.5 13.5 
5391 2 7.5 4 13.5 
5392 1 7.5 4.5 13 
5393 1 8 4 13 
5394 2 8 4.5 13.5 
5395 1 8.5 4 13.5 
5396 2 8.5 4.5 13 
5397 1 9 4 13 
5398 1 9 4.5 13.5 
5399 1 9.5 4 13.5 
5400 1 9.5 4.5 13 
5401 1 0 5 13 
5402 1 0 5.5 13.5 
5403 1 0.5 5 13.5 
5404 1 0.5 5.5 13 
5405 1 1 5 13 
5406 1 1 5.5 13.5 
5407 1 1.5 5 13.5 
5408 1 1.5 5.5 13 
5409 1 2 5 13 
5410 2 2 5.5 13.5 
5411 2 2.5 5 13.5 
5412 2 2.5 5.5 13 
5413 1 3 5 13 
5414 1 3 5.5 13.5 
5415 1 3.5 5 13.5 
5416 1 3.5 5.5 13 
5417 2 4 5 13 
5418 1 4 5.5 13.5 
5419 2 4.5 5 13.5 
5420 1 4.5 5.5 13 
5421 1 5 5 13 
5422 1 5 5.5 13.5 
5423 2 5.5 5 13.5 
5424 2 5.5 5.5 13 
5425 1 6 5 13 
5426 1 6 5.5 13.5 
5427 1 6.5 5 13.5 
5428 1 6.5 5.5 13 
5429 1 7 5 13 
5430 1 7 5.5 13.5 
5431 1 7.5 5 13.5 
5432 1 7.5 5.5 13 
5433 2 8 5 13 
5434 1 8 5.5 13.5 
5435 1 8.5 5 13.5 
5436 1 8.5 5.5 13 
5437 2 9 5 13 
5438 2 9 5.5 13.5 
5439 1 9.5 5 13.5 
5440 1 9.5 5.5 13 
5441 1 0 6 13 
5442 2 0 6.5 13.5 
5443 2 0.5 6 13.5 
5444 2 0.5 6.5 13 
5445 1 1 6 13 
5446 1 1 6.5 13.5 
5447 1 1.5 6 13.5 
5448 2 1.5 6.5 13 
5449 1 2 6 13 
5450 2 2 6.5 13.5 
5451 1 2.5 6 13.5 
5452 1 2.5 6.5 13 
5453 1 3 6 13 
5454 1 3 6.5 13.5 
5455 1 3.5 6 13.5 
5456 1 3.5 6.5 13 
5457 1 4 6 13 
5458 1 4 6.5 13.5 
5459 1 4.5 6 13.5 
5460 2 4.5 6.5 13 
5461 1 5 6 13 
5462 1 5 6.5 13.5 
5463 2 5.5 6 13.5 
5464 1 5.5 6.5 13 
5465 1 6 6 13 
5466 1 6 6.5 13.5 
5467 2 6.5 6 13.5 
5468 1 6.5 6.5 13 
5469 1 7 6 13 
5470 1 7 6.5 13.5 
5471 1 7.5 6 13.5 
5472 1 7.5 6.5 13 
5473 1 8 6 13 
5474 1 8 6.5 13.5 
5475 1 8.5 6 13.5 
5476 2 8.5 6.5 13 
5477 2 9 6 13 
5478 1 9 6.5 13.5 
5479 1 9.5 6 13.5 
5480 1 9.5 6.5 13 
5481 1 0 7 13 
5482 2 0 7.5 13.5 
5483 2 0.5 7 13.5 
5484 2 0.5 7.5 13 
5485 1 1 7 13 
5486 1 1 7.5 13.5 
5487 1 1.5 7 13.5 
5488 1 1.5 7.5 13 
5489 1 2 7 13 
5490 1 2 7.5 13.5 
5491 2 2.5 7 13.5 
5492 2 2.5 7.5 13 
5493 1 3 7 13 
5494 2 3 7.5 13.5 
5495 1 3.5 7 13.5 
5496 1 3.5 7.5 13 
5497 1 4 7 13 
5498 2 4 7.5 13.5 
5499 1 4.5 7 13.5 
5500 1 4.5 7.5 13 
5501 2 5 7 13 
5502 2 5 7.5 13.5 
5503 2 5.5 7 13.5 
5504 1 5.5 7.5 13 
5505 1 6 7 13 
5506 2 6 7.5 13.5 
5507 1 6.5 7 13.5 
5508 2 6.5 7.5 13 
5509 1 7 7 13 
5510 1 7 7.5 13.5 
5511 1 7.5 7 13.5 
5512 2 7.5 7.5 13 
5513 2 8 7 13 
5514 1 8 7.5 13.5 
5515 1 8.5 7 13.5 
5516 2 8.5 7.5 13 
5517 1 9 7 13 
5518 1 9 7.5 13.5 
5519 2 9.5 7 13.5 
5520 1 9.5 7.5 13 
5521 1 0 8 13 
5522 2 0 8.5 13.5 
5523 2 0.5 8 13.5 
5524 1 0.5 8.5 13 
5525 2 1 8 13 
5526 1 1 8.5 13.5 
5527 2 1.5 8 13.5 
5528 2 1.5 8.5 13 
5529 2 2 8 13 
5530 1 2 8.5 13.5 
5531 1 2.5 8 13.5 
5532 1 2.5 8.5 13 
5533 1 3 8 13 
5534 1 3 8.5 13.5 
5535 2 3.5 8 13.5 
5536 1 3.5 8.5 13 
5537 1 4 8 13 
5538 2 4 8.5 13.5 
5539 1 4.5 8 13.5 
5540 2 4.5 8.5 13 
5541 1 5 8 13 
5542 1 5 8.5 13.5 
5543 2 5.5 8 13.5 
5544 1 5.5 8.5 13 
5545 2 6 8 13 
5546 1 6 8.5 13.5 
5547 2 6.5 8 13.5 
5548 2 6.5 8.5 13 
5549 2 7 8 13 
5550 2 7 8.5 13.5 
5551 1 7.5 8 13.5 
5552 1 7.5 8.5 13 
5553 1 8 8 13 
5554 1 8 8.5 13.5 
5555 1 8.5 8 13.5 
5556 1 8.5 8.5 13 
5557 1 9 8 13 
5558 1 9 8.5 13.5 
5559 2 9.5 8 13.5 
5560 2 9.5 8.5 13 
5561 1 0 9 13 
5562 2 0 9.5 13.5 
5563 2 0.5 9 13.5 
5564 1 0.5 9.5 13 
5565 2 1 9 13 
5566 1 1 9.5 13.5 
5567 1 1.5 9 13.5 
5568 1 1.5 9.5 13 
5569 1 2 9 13 
5570 1 2 9.5 13.5 
5571 1 2.5 9 13.5 
5572 1 2.5 9.5 13 
5573 1 3 9 13 
5574 2 3 9.5 13.5 
5575 1 3.5 9 13.5 
5576 1 3.5 9.5 13 
5577 1 4 9 13 
5578 1 4 9.5 13.5 
5579 1 4.5 9 13.5 
5580 1 4.5 9.5 13 
5581 1 5 9 13 
5582 1 5 9.5 13.5 
5583 1 5.5 9 13.5 
5584 1 5.5 9.5 13 
5585 1 6 9 13 
5586 1 6 9.5 13.5 
5587 2 6.5 9 13.5 
5588 1 6.5 9.5 13 
5589 2 7 9 13 
5590 1 7 9.5 13.5 
5591 1 7.5 9 13.5 
5592 1 7.5 9.5 13 
5593 1 8 9 13 
5594 1 8 9.5 13.5 
5595 1 8.5 9 13.5 
5596 1 8.5 9.5 13 
5597 1 9 9 13 
5598 1 9 9.5 13.5 
5599 2 9.5 9 13.5 
5600 1 9.5 9.5 13 
5601 1 0 0 14 
5602 2 0 0.5 14.5 
5603 1 0.5 0 14.5 
5604 1 0.5 0.5 14 
5605 1 1 0 14 
5606 1 1 0.5 14.5 
5607 1 1.5 0 14.5 
5608 1 1.5 0.5 14 
5609 1 2 0 14 
5610 1 2 0.5 14.5 
5611 2 2.5 0 14.5 
5612 2 2.5 0.5 14 
5613 2 3 0 14 
5614 2 3 0.5 14.5 
5615 1 3.5 0 14.5 
5616 1 3.5 0.5 14 
5617 2 4 0 14 
5618 1 4 0.5 14.5 
5619 1 4.5 0 14.5 
5620 1 4.5 0.5 14 
5621 1 5 0 14 
5622 1 5 0.5 14.5 
5623 1 5.5 0 14.5 
5624 1 5.5 0.5 14 
5625 2 6 0 14 
5626 1 6 0.5 14.5 
5627 1 6.5 0 14.5 
5628 2 6.5 0.5 14 
5629 2 7 0 14 
5630 1 7 0.5 14.5 
5631 1 7.5 0 14.5 
5632 1 7.5 0.5 14 
5633 1 8 0 14 
5634 2 8 0.5 14.5 
5635 1 8.5 0 14.5 
5636 1 8.5 0.5 14 
5637 1 9 0 14 
5638 1 9 0.5 14.5 
5639 1 9.5 0 14.5 
5640 2 9.5 0.5 14 
5641 1 0 1 14 
5642 1 0 1.5 14.5 
5643 1 0.5 1 14.5 
5644 1 0.5 1.5 14 
5645 2 1 1 14 
5646 1 1 1.5 14.5 
5647 1 1.5 1 14.5 
5648 1 1.5 1.5 14 
5649 1 2 1 14 
5650 1 2 1.5 14.5 
5651 1 2.5 1 14.5 
5652 1 2.5 1.5 14 
5653 2 3 1 14 
5654 2 3 1.5 14.5 
5655 1 3.5 1 14.5 
5656 2 3.5 1.5 14 
5657 2 4 1 14 
5658 1 4 1.5 14.5 
5659 2 4.5 1 14.5 
5660 2 4.5 1.5 14 
5661 1 5 1 14 
5662 1 5 1.5 14.5 
5663 1 5.5 1 14.5 
5664 1 5.5 1.5 14 
5665 2 6 1 14 
5666 1 6 1.5 14.5 
5667 1 6.5 1 14.5 
5668 2 6.5 1.5 14 
5669 2 7 1 14 
5670 2 7 1.5 14.5 
5671 2 7.5 1 14.5 
5672 1 7.5 1.5 14 
5673 2 8 1 14 
5674 1 8 1.5 14.5 
5675 2 8.5 1 14.5 
5676 1 8.5 1.5 14 
5677 1 9 1 14 
5678 1 9 1.5 14.5 
5679 1 9.5 1 14.5 
5680 2 9.5 1.5 14 
5681 1 0 2 14 
5682 1 0 2.5 14.5 
5683 2 0.5 2 14.5 
5684 2 0.5 2.5 14 
5685 2 1 2 14 
5686 2 1 2.5 14.5 
5687 2 1.5 2 14.5 
5688 2 1.5 2.5 14 
5689 2 2 2 14 
5690 1 2 2.5 14.5 
5691 2 2.5 2 14.5 
5692 2 2.5 2.5 14 
5693 1 3 2 14 
5694 1 3 2.5 14.5 
5695 1 3.5 2 14.5 
5696 1 3.5 2.5 14 
5697 2 4 2 14 
5698 2 4 2.5 14.5 
5699 1 4.5 2 14.5 
5700 2 4.5 2.5 14 
5701 1 5 2 14 
5702 2 5 2.5 14.5 
5703 1 5.5 2 14.5 
5704 1 5.5 2.5 14 
5705 1 6 2 14 
5706 1 6 2.5 14.5 
5707 1 6.5 2 14.5 
5708 2 6.5 2.5 14 
5709 1 7 2 14 
5710 2 7 2.5 14.5 
5711 1 7.5 2 14.5 
5712 1 7.5 2.5 14 
5713 1 8 2 14 
5714 2 8 2.5 14.5 
5715 2 8.5 2 14.5 
5716 1 8.5 2.5 14 
5717 1 9 2 14 
5718 1 9 2.5 14.5 
5719 1 9.5 2 14.5 
5720 1 9.5 2.5 14 
5721 2 0 3 14 
5722 1 0 3.5 14.5 
5723 2 0.5 3 14.5 
5724 1 0.5 3.5 14 
5725 1 1 3 14 
5726 1 1 3.5 14.5 
5727 1 1.5 3 14.5 
5728 2 1.5 3.5 14 
5729 1 2 3 14 
5730 2 2 3.5 14.5 
5731 2 2.5 3 14.5 
5732 1 2.5 3.5 14 
5733 2 3 3 14 
5734 1 3 3.5 14.5 
5735 1 3.5 3 14.5 
5736 1 3.5 3.5 14 
5737 1 4 3 14 
5738 1 4 3.5 14.5 
5739 2 4.5 3 14.5 
5740 2 4.5 3.5 14 
5741 1 5 3 14 
5742 1 5 3.5 14.5 
5743 1 5.5 3 14.5 
5744 2 5.5 3.5 14 
5745 1 6 3 14 
5746 2 6 3.5 14.5 
5747 1 6.5 3 14.5 
5748 1 6.5 3.5 14 
5749 2 7 3 14 
5750 2 7 3.5 14.5 
5751 2 7.5 3 14.5 
5752 1 7.5 3.5 14 
5753 2 8 3 14 
5754 1 8 3.5 14.5 
5755 1 8.5 3 14.5 
5756 1 8.5 3.5 14 
5757 1 9 3 14 
5758 2 9 3.5 14.5 
5759 1 9.5 3 14.5 
5760 1 9.5 3.5 14 
5761 1 0 4 14 
5762 1 0 4.5 14.5 
5763 1 0.5 4 14.5 
5764 1 0.5 4.5 14 
5765 1 1 4 14 
5766 1 1 4.5 14.5 
5767 1 1.5 4 14.5 
5768 1 1.5 4.5 14 
5769 1 2 4 14 
5770 1 2 4.5 14.5 
5771 1 2.5 4 14.5 
5772 1 2.5 4.5 14 
5773 1 3 4 14 
5774 2 3 4.5 14.5 
5775 1 3.5 4 14.5 
5776 1 3.5 4.5 14 
5777 1 4 4 14 
5778 2 4 4.5 14.5 
5779 2 4.5 4 14.5 
5780 1 4.5 4.5 14 
5781 1 5 4 14 
5782 2 5 4.5 14.5 
5783 1 5.5 4 14.5 
5784 2 5.5 4.5 14 
5785 1 6 4 14 
5786 2 6 4.5 14.5 
5787 2 6.5 4 14.5 
5788 1 6.5 4.5 14 
5789 2 7 4 14 
5790 1 7 4.5 14.5 
5791 1 7.5 4 14.5 
5792 1 7.5 4.5 14 
5793 1 8 4 14 
5794 1 8 4.5 14.5 
5795 2 8.5 4 14.5 
5796 2 8.5 4.5 14 
5797 1 9 4 14 
5798 2 9 4.5 14.5 
5799 1 9.5 4 14.5 
5800 1 9.5 4.5 14 
5801 1 0 5 14 
5802 1 0 5.5 14.5 
5803 1 0.5 5 14.5 
5804 1 0.5 5.5 14 
5805 1 1 5 14 
5806 1 1 5.5 14.5 
5807 1 1.5 5 14.5 
5808 1 1.5 5.5 14 
5809 1 2 5 14 
5810 1 2 5.5 14.5 
5811 2 2.5 5 14.5 
5812 1 2.5 5.5 14 
5813 1 3 5 14 
5814 1 3 5.5 14.5 
5815 1 3.5 5 14.5 
5816 1 3.5 5.5 14 
5817 2 4 5 14 
5818 1 4 5.5 14.5 
5819 2 4.5 5 14.5 
5820 1 4.5 5.5 14 
5821 1 5 5 14 
5822 1 5 5.5 14.5 
5823 2 5.5 5 14.5 
5824 2 5.5 5.5 14 
5825 1 6 5 14 
5826 2 6 5.5 14.5 
5827 1 6.5 5 14.5 
5828 1 6.5 5.5 14 
5829 1 7 5 14 
5830 2 7 5.5 14.5 
5831 1 7.5 5 14.5 
5832 1 7.5 5.5 14 
5833 2 8 5 14 
5834 2 8 5.5 14.5 
5835 2 8.5 5 14.5 
5836 1 8.5 5.5 14 
5837 1 9 5 14 
5838 2 9 5.5 14.5 
5839 1 9.5 5 14.5 
5840 1 9.5 5.5 14 
5841 1 0 6 14 
5842 1 0 6.5 14.5 
5843 2 0.5 6 14.5 
5844 2 0.5 6.5 14 
5845 1 1 6 14 
5846 1 1 6.5 14.5 
5847 1 1.5 6 14.5 
5848 1 1.5 6.5 14 
5849 1 2 6 14 
5850 1 2 6.5 14.5 
5851 1 2.5 6 14.5 
5852 1 2.5 6.5 14 
5853 1 3 6 14 
5854 1 3 6.5 14.5 
5855 1 3.5 6 14.5 
5856 1 3.5 6.5 14 
5857 1 4 6 14 
5858 1 4 6.5 14.5 
5859 1 4.5 6 14.5 
5860 1 4.5 6.5 14 
5861 1 5 6 14 
5862 2 5 6.5 14.5 
5863 1 5.5 6 14.5 
5864 1 5.5 6.5 14 
5865 1 6 6 14 
5866 1 6 6.5 14.5 
5867 1 6.5 6 14.5 
5868 1 6.5 6.5 14 
5869 1 7 6 14 
5870 1 7 6.5 14.5 
5871 1 7.5 6 14.5 
5872 1 7.5 6.5 14 
5873 1 8 6 14 
5874 1 8 6.5 14.5 
5875 1 8.5 6 14.5 
5876 1 8.5 6.5 14 
5877 1 9 6 14 
5878 1 9 6.5 14.5 
5879 1 9.5 6 14.5 
5880 1 9.5 6.5 14 
5881 2 0 7 14 
5882 1 0 7.5 14.5 
5883 2 0.5 7 14.5 
5884 1 0.5 7.5 14 
5885 2 1 7 14 
5886 1 1 7.5 14.5 
5887 1 1.5 7 14.5 
5888 1 1.5 7.5 14 
5889 2 2 7 14 
5890 2 2 7.5 14.5 
5891 1 2.5 7 14.5 
5892 2 2.5 7.5 14 
5893 1 3 7 14 
5894 2 3 7.5 14.5 
5895 1 3.5 7 14.5 
5896 2 3.5 7.5 14 
5897 1 4 7 14 
5898 1 4 7.5 14.5 
5899 2 4.5 7 14.5 
5900 1 4.5 7.5 14 
5901 2 5 7 14 
5902 1 5 7.5 14.5 
5903 1 5.5 7 14.5 
5904 1 5.5 7.5 14 
5905 1 6 7 14 
5906 2 6 7.5 14.5 
5907 1 6.5 7 14.5 
5908 1 6.5 7.5 14 
5909 1 7 7 14 
5910 1 7 7.5 14.5 
5911 2 7.5 7 14.5 
5912 1 7.5 7.5 14 
5913 1 8 7 14 
5914 1 8 7.5 14.5 
5915 1 8.5 7 14.5 
5916 1 8.5 7.5 14 
5917 1 9 7 14 
5918 1 9 7.5 14.5 
5919 1 9.5 7 14.5 
5920 2 9.5 7.5 14 
5921 1 0 8 14 
5922 1 0 8.5 14.5 
5923 1 0.5 8 14.5 
5924 1 0.5 8.5 14 
5925 1 1 8 14 
5926 1 1 8.5 14.5 
5927 1 1.5 8 14.5 
5928 2 1.5 8.5 14 
5929 2 2 8 14 
5930 1 2 8.5 14.5 
5931 1 2.5 8 14.5 
5932 1 2.5 8.5 14 
5933 1 3 8 14 
5934 1 3 8.5 14.5 
5935 2 3.5 8 14.5 
5936 1 3.5 8.5 14 
5937 1 4 8 14 
5938 1 4 8.5 14.5 
5939 1 4.5 8 14.5 
5940 1 4.5 8.5 14 
5941 1 5 8 14 
5942 1 5 8.5 14.5 
5943 1 5.5 8 14.5 
5944 1 5.5 8.5 14 
5945 1 6 8 14 
5946 1 6 8.5 14.5 
5947 1 6.5 8 14.5 
5948 1 6.5 8.5 14 
5949 1 7 8 14 
5950 1 7 8.5 14.5 
5951 1 7.5 8 14.5 
5952 1 7.5 8.5 14 
5953 2 8 8 14 
5954 2 8 8.5 14.5 
5955 2 8.5 8 14.5 
5956 1 8.5 8.5 14 
5957 1 9 8 14 
5958 2 9 8.5 14.5 
5959 1 9.5 8 14.5 
5960 1 9.5 8.5 14 
5961 1 0 9 14 
5962 1 0 9.5 14.5 
5963 2 0.5 9 14.5 
5964 1 0.5 9.5 14 
5965 1 1 9 14 
5966 1 1 9.5 14.5 
5967 1 1.5 9 14.5 
5968 1 1.5 9.5 14 
5969 1 2 9 14 
5970 1 2 9.5 14.5 
5971 1 2.5 9 14.5 
5972 1 2.5 9.5 14 
5973 1 3 9 14 
5974 1 3 9.5 14.5 
5975 2 3.5 9 14.5 
5976 1 3.5 9.5 14 
5977 2 4 9 14 
5978 2 4 9.5 14.5 
5979 2 4.5 9 14.5 
5980 1 4.5 9.5 14 
5981 1 5 9 14 
5982 1 5 9.5 14.5 
5983 1 5.5 9 14.5 
5984 1 5.5 9.5 14 
5985 1 6 9 14 
5986 1 6 9.5 14.5 
5987 2 6.5 9 14.5 
5988 2 6.5 9.5 14 
5989 1 7 9 14 
5990 1 7 9.5 14.5 
5991 1 7.5 9 14.5 
5992 1 7.5 9.5 14 
5993 1 8 9 14 
5994 1 8 9.5 14.5 
5995 2 8.5 9 14.5 
5996 1 8.5 9.5 14 
5997 1 9 9 14 
5998 2 9 9.5 14.5 
5999 1 9.5 9 14.5 
6000 1 9.5 9.5 14 
6001 1 0 0 15 
6002 2 0 0.5 15.5 
6003 2 0.5 0 15.5 
6004 1 0.5 0.5 15 
6005 1 1 0 15 
6006 2 1 0.5 15.5 
6007 1 1.5 0 15.5 
6008 1 1.5 0.5 15 
6009 2 2 0 15 
6010 1 2 0.5 15.5 
6011 2 2.5 0 15.5 
6012 1 2.5 0.5 15 
6013 1 3 0 15 
6014 1 3 0.5 15.5 
6015 1 3.5 0 15.5 
6016 1 3.5 0.5 15 
6017 1 4 0 15 
6018 1 4 0.5 15.5 
6019 1 4.5 0 15.5 
6020 1 4.5 0.5 15 
6021 1 5 0 15 
6022 1 5 0.5 15.5 
6023 1 5.5 0 15.5 
6024 1 5.5 0.5 15 
6025 1 6 0 15 
6026 1 6 0.5 15.5 
6027 1 6.5 0 15.5 
6028 1 6.5 0.5 15 
6029 1 7 0 15 
6030 1 7 0.5 15.5 
6031 2 7.5 0 15.5 
6032 2 7.5 0.5 15 
6033 1 8 0 15 
6034 1 8 0.5 15.5 
6035 1 8.5 0 15.5 
6036 2 8.5 0.5 15 
6037 1 9 0 15 
6038 1 9 0.5 15.5 
6039 1 9.5 0 15.5 
6040 1 9.5 0.5 15 
6041 1 0 1 15 
6042 1 0 1.5 15.5 
6043 2 0.5 1 15.5 
6044 2 0.5 1.5 15 
6045 1 1 1 15 
6046 1 1 1.5 15.5 
6047 1 1.5 1 15.5 
6048 1 1.5 1.5 15 
6049 2 2 1 15 
6050 1 2 1.5 15.5 
6051 1 2.5 1 15.5 
6052 1 2.5 1.5 15 
6053 1 3 1 15 
6054 1 3 1.5 15.5 
6055 1 3.5 1 15.5 
6056 1 3.5 1.5 15 
6057 2 4 1 15 
6058 1 4 1.5 15.5 
6059 2 4.5 1 15.5 
6060 1 4.5 1.5 15 
6061 1 5 1 15 
6062 1 5 1.5 15.5 
6063 2 5.5 1 15.5 
6064 1 5.5 1.5 15 
6065 2 6 1 15 
6066 1 6 1.5 15.5 
6067 2 6.5 1 15.5 
6068 1 6.5 1.5 15 
6069 2 7 1 15 
6070 2 7 1.5 15.5 
6071 1 7.5 1 15.5 
6072 1 7.5 1.5 15 
6073 1 8 1 15 
6074 1 8 1.5 15.5 
6075 1 8.5 1 15.5 
6076 2 8.5 1.5 15 
6077 1 9 1 15 
6078 2 9 1.5 15.5 
6079 1 9.5 1 15.5 
6080 1 9.5 1.5 15 
6081 2 0 2 15 
6082 1 0 2.5 15.5 
6083 1 0.5 2 15.5 
6084 1 0.5 2.5 15 
6085 2 1 2 15 
6086 2 1 2.5 15.5 
6087 2 1.5 2 15.5 
6088 1 1.5 2.5 15 
6089 1 2 2 15 
6090 2 2 2.5 15.5 
6091 1 2.5 2 15.5 
6092 1 2.5 2.5 15 
6093 2 3 2 15 
6094 2 3 2.5 15.5 
6095 1 3.5 2 15.5 
6096 2 3.5 2.5 15 
6097 2 4 2 15 
6098 1 4 2.5 15.5 
6099 2 4.5 2 15.5 
6100 1 4.5 2.5 15 
6101 2 5 2 15 
6102 2 5 2.5 15.5 
6103 1 5.5 2 15.5 
6104 2 5.5 2.5 15 
6105 1 6 2 15 
6106 1 6 2.5 15.5 
6107 1 6.5 2 15.5 
6108 2 6.5 2.5 15 
6109 1 7 2 15 
6110 1 7 2.5 15.5 
6111 1 7.5 2 15.5 
6112 1 7.5 2.5 15 
6113 2 8 2 15 
6114 1 8 2.5 15.5 
6115 1 8.5 2 15.5 
6116 2 8.5 2.5 15 
6117 1 9 2 15 
6118 1 9 2.5 15.5 
6119 1 9.5 2 15.5 
6120 1 9.5 2.5 15 
6121 1 0 3 15 
6122 1 0 3.5 15.5 
6123 1 0.5 3 15.5 
6124 1 0.5 3.5 15 
6125 1 1 3 15 
6126 2 1 3.5 15.5 
6127 1 1.5 3 15.5 
6128 1 1.5 3.5 15 
6129 2 2 3 15 
6130 1 2 3.5 15.5 
6131 2 2.5 3 15.5 
6132 2 2.5 3.5 15 
6133 1 3 3 15 
6134 2 3 3.5 15.5 
6135 1 3.5 3 15.5 
6136 1 3.5 3.5 15 
6137 2 4 3 15 
6138 2 4 3.5 15.5 
6139 1 4.5 3 15.5 
6140 1 4.5 3.5 15 
6141 1 5 3 15 
6142 1 5 3.5 15.5 
6143 1 5.5 3 15.5 
6144 1 5.5 3.5 15 
6145 1 6 3 15 
6146 1 6 3.5 15.5 
6147 1 6.5 3 15.5 
6148 2 6.5 3.5 15 
6149 2 7 3 15 
6150 2 7 3.5 15.5 
6151 1 7.5 3 15.5 
6152 1 7.5 3.5 15 
6153 1 8 3 15 
6154 1 8 3.5 15.5 
6155 1 8.5 3 15.5 
6156 1 8.5 3.5 15 
6157 2 9 3 15 
6158 1 9 3.5 15.5 
6159 2 9.5 3 15.5 
6160 1 9.5 3.5 15 
6161 1 0 4 15 
6162 1 0 4.5 15.5 
6163 1 0.5 4 15.5 
6164 1 0.5 4.5 15 
6165 1 1 4 15 
6166 1 1 4.5 15.5 
6167 2 1.5 4 15.5 
6168 1 1.5 4.5 15 
6169 1 2 4 15 
6170 2 2 4.5 15.5 
6171 2 2.5 4 15.5 
6172 1 2.5 4.5 15 
6173 1 3 4 15 
6174 1 3 4.5 15.5 
6175 1 3.5 4 15.5 
6176 1 3.5 4.5 15 
6177 1 4 4 15 
6178 1 4 4.5 15.5 
6179 2 4.5 4 15.5 
6180 1 4.5 4.5 15 
6181 1 5 4 15 
6182 1 5 4.5 15.5 
6183 1 5.5 4 15.5 
6184 2 5.5 4.5 15 
6185 1 6 4 15 
6186 1 6 4.5 15.5 
6187 1 6.5 4 15.5 
6188 1 6.5 4.5 15 
6189 2 7 4 15 
6190 2 7 4.5 15.5 
6191 1 7.5 4 15.5 
6192 1 7.5 4.5 15 
6193 1 8 4 15 
6194 2 8 4.5 15.5 
6195 2 8.5 4 15.5 
6196 2 8.5 4.5 15 
6197 1 9 4 15 
6198 1 9 4.5 15.5 
6199 2 9.5 4 15.5 
6200 1 9.5 4.5 15 
6201 1 0 5 15 
6202 1 0 5.5 15.5 
6203 1 0.5 5 15.5 
6204 1 0.5 5.5 15 
6205 2 1 5 15 
6206 1 1 5.5 15.5 
6207 1 1.5 5 15.5 
6208 2 1.5 5.5 15 
6209 2 2 5 15 
6210 1 2 5.5 15.5 
6211 1 2.5 5 15.5 
6212 1 2.5 5.5 15 
6213 1 3 5 15 
6214 1 3 5.5 15.5 
6215 1 3.5 5 15.5 
6216 1 3.5 5.5 15 
6217 1 4 5 15 
6218 1 4 5.5 15.5 
6219 2 4.5 5 15.5 
6220 1 4.5 5.5 15 
6221 1 5 5 15 
6222 2 5 5.5 15.5 
6223 1 5.5 5 15.5 
6224 1 5.5 5.5 15 
6225 1 6 5 15 
6226 1 6 5.5 15.5 
6227 1 6.5 5 15.5 
6228 1 6.5 5.5 15 
6229 1 7 5 15 
6230 1 7 5.5 15.5 
6231 1 7.5 5 15.5 
6232 1 7.5 5.5 15 
6233 1 8 5 15 
6234 1 8 5.5 15.5 
6235 1 8.5 5 15.5 
6236 2 8.5 5.5 15 
6237 2 9 5 15 
6238 1 9 5.5 15.5 
6239 1 9.5 5 15.5 
6240 2 9.5 5.5 15 
6241 2 0 6 15 
6242 1 0 6.5 15.5 
6243 1 0.5 6 15.5 
6244 2 0.5 6.5 15 
6245 1 1 6 15 
6246 2 1 6.5 15.5 
6247 1 1.5 6 15.5 
6248 1 1.5 6.5 15 
6249 1 2 6 15 
6250 1 2 6.5 15.5 
6251 1 2.5 6 15.5 
6252 1 2.5 6.5 15 
6253 2 3 6 15 
6254 2 3 6.5 15.5 
6255 2 3.5 6 15.5 
6256 2 3.5 6.5 15 
6257 1 4 6 15 
6258 1 4 6.5 15.5 
6259 1 4.5 6 15.5 
6260 2 4.5 6.5 15 
6261 1 5 6 15 
6262 1 5 6.5 15.5 
6263 1 5.5 6 15.5 
6264 1 5.5 6.5 15 
6265 1 6 6 15 
6266 1 6 6.5 15.5 
6267 2 6.5 6 15.5 
6268 1 6.5 6.5 15 
6269 1 7 6 15 
6270 1 7 6.5 15.5 
6271 2 7.5 6 15.5 
6272 1 7.5 6.5 15 
6273 2 8 6 15 
6274 1 8 6.5 15.5 
6275 2 8.5 6 15.5 
6276 1 8.5 6.5 15 
6277 2 9 6 15 
6278 1 9 6.5 15.5 
6279 1 9.5 6 15.5 
6280 1 9.5 6.5 15 
6281 2 0 7 15 
6282 2 0 7.5 15.5 
6283 1 0.5 7 15.5 
6284 1 0.5 7.5 15 
6285 1 1 7 15 
6286 1 1 7.5 15.5 
6287 1 1.5 7 15.5 
6288 1 1.5 7.5 15 
6289 1 2 7 15 
6290 1 2 7.5 15.5 
6291 1 2.5 7 15.5 
6292 2 2.5 7.5 15 
6293 1 3 7 15 
6294 1 3 7.5 15.5 
6295 1 3.5 7 15.5 
6296 1 3.5 7.5 15 
6297 2 4 7 15 
6298 1 4 7.5 15.5 
6299 1 4.5 7 15.5 
6300 2 4.5 7.5 15 
6301 1 5 7 15 
6302 1 5 7.5 15.5 
6303 1 5.5 7 15.5 
6304 1 5.5 7.5 15 
6305 1 6 7 15 
6306 1 6 7.5 15.5 
6307 1 6.5 7 15.5 
6308 1 6.5 7.5 15 
6309 2 7 7 15 
6310 1 7 7.5 15.5 
6311 2 7.5 7 15.5 
6312 1 7.5 7.5 15 
6313 1 8 7 15 
6314 1 8 7.5 15.5 
6315 1 8.5 7 15.5 
6316 2 8.5 7.5 15 
6317 1 9 7 15 
6318 1 9 7.5 15.5 
6319 1 9.5 7 15.5 
6320 1 9.5 7.5 15 
6321 2 0 8 15 
6322 1 0 8.5 15.5 
6323 2 0.5 8 15.5 
6324 1 0.5 8.5 15 
6325 1 1 8 15 
6326 2 1 8.5 15.5 
6327 2 1.5 8 15.5 
6328 1 1.5 8.5 15 
6329 2 2 8 15 
6330 2 2 8.5 15.5 
6331 2 2.5 8 15.5 
6332 1 2.5 8.5 15 
6333 1 3 8 15 
6334 1 3 8.5 15.5 
6335 1 3.5 8 15.5 
6336 1 3.5 8.5 15 
6337 2 4 8 15 
6338 2 4 8.5 15.5 
6339 1 4.5 8 15.5 
6340 1 4.5 8.5 15 
6341 1 5 8 15 
6342 1 5 8.5 15.5 
6343 1 5.5 8 15.5 
6344 1 5.5 8.5 15 
6345 1 6 8 15 
6346 1 6 8.5 15.5 
6347 1 6.5 8 15.5 
6348 1 6.5 8.5 15 
6349 1 7 8 15 
6350 1 7 8.5 15.5 
6351 1 7.5 8 15.5 
6352 1 7.5 8.5 15 
6353 2 8 8 15 
6354 1 8 8.5 15.5 
6355 2 8.5 8 15.5 
6356 1 8.5 8.5 15 
6357 1 9 8 15 
6358 2 9 8.5 15.5 
6359 1 9.5 8 15.5 
6360 1 9.5 8.5 15 
6361 2 0 9 15 
6362 1 0 9.5 15.5 
6363 1 0.5 9 15.5 
6364 1 0.5 9.5 15 
6365 1 1 9 15 
6366 1 1 9.5 15.5 
6367 1 1.5 9 15.5 
6368 1 1.5 9.5 15 
6369 1 2 9 15 
6370 1 2 9.5 15.5 
6371 1 2.5 9 15.5 
6372 2 2.5 9.5 15 
6373 1 3 9 15 
6374 1 3 9.5 15.5 
6375 1 3.5 9 15.5 
6376 1 3.5 9.5 15 
6377 2 4 9 15 
6378 1 4 9.5 15.5 
6379 1 4.5 9 15.5 
6380 2 4.5 9.5 15 
6381 1 5 9 15 
6382 1 5 9.5 15.5 
6383 1 5.5 9 15.5 
6384 1 5.5 9.5 15 
6385 1 6 9 15 
6386 1 6 9.5 15.5 
6387 1 6.5 9 15.5 
6388 2 6.5 9.5 15 
6389 1 7 9 15 
6390 1 7 9.5 15.5 
6391 1 7.5 9 15.5 
6392 2 7.5 9.5 15 
6393 1 8 9 15 
6394 2 8 9.5 15.5 
6395 1 8.5 9 15.5 
6396 1 8.5 9.5 15 
6397 2 9 9 15 
6398 1 9 9.5 15.5 
6399 1 9.5 9 15.5 
6400 2 9.5 9.5 15 
6401 1 0 0 16 
6402 1 0 0.5 16.5 
6403 1 0.5 0 16.5 
6404 1 0.5 0.5 16 
6405 1 1 0 16 
6406 2 1 0.5 16.5 
6407 1 1.5 0 16.5 
6408 1 1.5 0.5 16 
6409 1 2 0 16 
6410 1 2 0.5 16.5 
6411 2 2.5 0 16.5 
6412 1 2.5 0.5 16 
6413 1 3 0 16 
6414 1 3 0.5 16.5 
6415 1 3.5 0 16.5 
6416 1 3.5 0.5 16 
6417 1 4 0 16 
6418 1 4 0.5 16.5 
6419 2 4.5 0 16.5 
6420 1 4.5 0.5 16 
6421 1 5 0 16 
6422 1 5 0.5 16.5 
6423 1 5.5 0 16.5 
6424 1 5.5 0.5 16 
6425 1 6 0 16 
6426 2 6 0.5 16.5 
6427 1 6.5 0 16.5 
6428 1 6.5 0.5 16 
6429 1 7 0 16 
6430 1 7 0.5 16.5 
6431 2 7.5 0 16.5 
6432 1 7.5 0.5 16 
6433 2 8 0 16 
6434 2 8 0.5 16.5 
6435 1 8.5 0 16.5 
6436 1 8.5 0.5 16 
6437 1 9 0 16 
6438 1 9 0.5 16.5 
6439 2 9.5 0 16.5 
6440 1 9.5 0.5 16 
6441 1 0 1 16 
6442 1 0 1.5 16.5 
6443 1 0.5 1 16.5 
6444 1 0.5 1.5 16 
6445 2 1 1 16 
6446 2 1 1.5 16.5 
6447 2 1.5 1 16.5 
6448 1 1.5 1.5 16 
6449 1 2 1 16 
6450 1 2 1.5 16.5 
6451 1 2.5 1 16.5 
6452 1 2.5 1.5 16 
6453 1 3 1 16 
6454 1 3 1.5 16.5 
6455 1 3.5 1 16.5 
6456 1 3.5 1.5 16 
6457 1 4 1 16 
6458 1 4 1.5 16.5 
6459 2 4.5 1 16.5 
6460 1 4.5 1.5 16 
6461 1 5 1 16 
6462 1 5 1.5 16.5 
6463 1 5.5 1 16.5 
6464 1 5.5 1.5 16 
6465 1 6 1 16 
6466 1 6 1.5 16.5 
6467 1 6.5 1 16.5 
6468 1 6.5 1.5 16 
6469 2 7 1 16 
6470 1 7 1.5 16.5 
6471 1 7.5 1 16.5 
6472 1 7.5 1.5 16 
6473 1 8 1 16 
6474 1 8 1.5 16.5 
6475 1 8.5 1 16.5 
6476 2 8.5 1.5 16 
6477 1 9 1 16 
6478 1 9 1.5 16.5 
6479 1 9.5 1 16.5 
6480 1 9.5 1.5 16 
6481 2 0 2 16 
6482 1 0 2.5 16.5 
6483 2 0.5 2 16.5 
6484 2 0.5 2.5 16 
6485 1 1 2 16 
6486 1 1 2.5 16.5 
6487 1 1.5 2 16.5 
6488 1 1.5 2.5 16 
6489 2 2 2 16 
6490 1 2 2.5 16.5 
6491 1 2.5 2 16.5 
6492 1 2.5 2.5 16 
6493 1 3 2 16 
6494 2 3 2.5 16.5 
6495 2 3.5 2 16.5 
6496 1 3.5 2.5 16 
6497 1 4 2 16 
6498 1 4 2.5 16.5 
6499 1 4.5 2 16.5 
6500 1 4.5 2.5 16 
6501 1 5 2 16 
6502 1 5 2.5 16.5 
6503 1 5.5 2 16.5 
6504 1 5.5 2.5 16 
6505 1 6 2 16 
6506 1 6 2.5 16.5 
6507 2 6.5 2 16.5 
6508 1 6.5 2.5 16 
6509 1 7 2 16 
6510 1 7 2.5 16.5 
6511 1 7.5 2 16.5 
6512 1 7.5 2.5 16 
6513 1 8 2 16 
6514 1 8 2.5 16.5 
6515 1 8.5 2 16.5 
6516 1 8.5 2.5 16 
6517 1 9 2 16 
6518 1 9 2.5 16.5 
6519 1 9.5 2 16.5 
6520 1 9.5 2.5 16 
6521 2 0 3 16 
6522 1 0 3.5 16.5 
6523 2 0.5 3 16.5 
6524 1 0.5 3.5 16 
6525 1 1 3 16 
6526 1 1 3.5 16.5 
6527 1 1.5 3 16.5 
6528 1 1.5 3.5 16 
6529 1 2 3 16 
6530 1 2 3.5 16.5 
6531 1 2.5 3 16.5 
6532 1 2.5 3.5 16 
6533 1 3 3 16 
6534 2 3 3.5 16.5 
6535 1 3.5 3 16.5 
6536 1 3.5 3.5 16 
6537 1 4 3 16 
6538 1 4 3.5 16.5 
6539 1 4.5 3 16.5 
6540 1 4.5 3.5 16 
6541 1 5 3 16 
6542 1 5 3.5 16.5 
6543 1 5.5 3 16.5 
6544 1 5.5 3.5 16 
6545 1 6 3 16 
6546 1 6 3.5 16.5 
6547 1 6.5 3 16.5 
6548 1 6.5 3.5 16 
6549 1 7 3 16 
6550 1 7 3.5 16.5 
6551 1 7.5 3 16.5 
6552 1 7.5 3.5 16 
6553 2 8 3 16 
6554 1 8 3.5 16.5 
6555 1 8.5 3 16.5 
6556 1 8.5 3.5 16 
6557 1 9 3 16 
6558 1 9 3.5 16.5 
6559 1 9.5 3 16.5 
6560 2 9.5 3.5 16 
6561 1 0 4 16 
6562 1 0 4.5 16.5 
6563 1 0.5 4 16.5 
6564 1 0.5 4.5 16 
6565 1 1 4 16 
6566 1 1 4.5 16.5 
6567 1 1.5 4 16.5 
6568 1 1.5 4.5 16 
6569 1 2 4 16 
6570 1 2 4.5 16.5 
6571 1 2.5 4 16.5 
6572 1 2.5 4.5 16 
6573 1 3 4 16 
6574 1 3 4.5 16.5 
6575 1 3.5 4 16.5 
6576 1 3.5 4.5 16 
6577 1 4 4 16 
6578 1 4 4.5 16.5 
6579 1 4.5 4 16.5 
6580 1 4.5 4.5 16 
6581 1 5 4 16 
6582 1 5 4.5 16.5 
6583 2 5.5 4 16.5 
6584 1 5.5 4.5 16 
6585 1 6 4 16 
6586 1 6 4.5 16.5 
6587 1 6.5 4 16.5 
6588 2 6.5 4.5 16 
6589 1 7 4 16 
6590 1 7 4.5 16.5 
6591 1 7.5 4 16.5 
6592 2 7.5 4.5 16 
6593 1 8 4 16 
6594 2 8 4.5 16.5 
6595 1 8.5 4 16.5 
6596 1 8.5 4.5 16 
6597 1 9 4 16 
6598 1 9 4.5 16.5 
6599 2 9.5 4 16.5 
6600 1 9.5 4.5 16 
6601 2 0 5 16 
6602 1 0 5.5 16.5 
6603 1 0.5 5 16.5 
6604 1 0.5 5.5 16 
6605 1 1 5 16 
6606 2 1 5.5 16.5 
6607 2 1.5 5 16.5 
6608 1 1.5 5.5 16 
6609 1 2 5 16 
6610 1 2 5.5 16.5 
6611 1 2.5 5 16.5 
6612 1 2.5 5.5 16 
6613 1 3 5 16 
6614 2 3 5.5 16.5 
6615 1 3.5 5 16.5 
6616 1 3.5 5.5 16 
6617 2 4 5 16 
6618 1 4 5.5 16.5 
6619 1 4.5 5 16.5 
6620 1 4.5 5.5 16 
6621 1 5 5 16 
6622 2 5 5.5 16.5 
6623 1 5.5 5 16.5 
6624 1 5.5 5.5 16 
6625 1 6 5 16 
6626 1 6 5.5 16.5 
6627 2 6.5 5 16.5 
6628 1 6.5 5.5 16 
6629 1 7 5 16 
6630 1 7 5.5 16.5 
6631 2 7.5 5 16.5 
6632 1 7.5 5.5 16 
6633 1 8 5 16 
6634 1 8 5.5 16.5 
6635 1 8.5 5 16.5 
6636 1 8.5 5.5 16 
6637 1 9 5 16 
6638 1 9 5.5 16.5 
6639 1 9.5 5 16.5 
6640 1 9.5 5.5 16 
6641 1 0 6 16 
6642 1 0 6.5 16.5 
6643 1 0.5 6 16.5 
6644 1 0.5 6.5 16 
6645 1 1 6 16 
6646 1 1 6.5 16.5 
6647 1 1.5 6 16.5 
6648 1 1.5 6.5 16 
6649 1 2 6 16 
6650 1 2 6.5 16.5 
6651 1 2.5 6 16.5 
6652 2 2.5 6.5 16 
6653 1 3 6 16 
6654 1 3 6.5 16.5 
6655 1 3.5 6 16.5 
6656 1 3.5 6.5 16 
6657 1 4 6 16 
6658 1 4 6.5 16.5 
6659 2 4.5 6 16.5 
6660 1 4.5 6.5 16 
6661 1 5 6 16 
6662 1 5 6.5 16.5 
6663 1 5.5 6 16.5 
6664 1 5.5 6.5 16 
6665 1 6 6 16 
6666 1 6 6.5 16.5 
6667 2 6.5 6 16.5 
6668 2 6.5 6.5 16 
6669 1 7 6 16 
6670 1 7 6.5 16.5 
6671 1 7.5 6 16.5 
6672 2 7.5 6.5 16 
6673 2 8 6 16 
6674 1 8 6.5 16.5 
6675 1 8.5 6 16.5 
6676 1 8.5 6.5 16 
6677 1 9 6 16 
6678 1 9 6.5 16.5 
6679 1 9.5 6 16.5 
6680 1 9.5 6.5 16 
6681 1 0 7 16 
6682 1 0 7.5 16.5 
6683 1 0.5 7 16.5 
6684 1 0.5 7.5 16 
6685 1 1 7 16 
6686 1 1 7.5 16.5 
6687 1 1.5 7 16.5 
6688 1 1.5 7.5 16 
6689 1 2 7 16 
6690 1 2 7.5 16.5 
6691 1 2.5 7 16.5 
6692 2 2.5 7.5 16 
6693 1 3 7 16 
6694 1 3 7.5 16.5 
6695 1 3.5 7 16.5 
6696 1 3.5 7.5 16 
6697 1 4 7 16 
6698 1 4 7.5 16.5 
6699 1 4.5 7 16.5 
6700 1 4.5 7.5 16 
6701 2 5 7 16 
6702 1 5 7.5 16.5 
6703 1 5.5 7 16.5 
6704 1 5.5 7.5 16 
6705 2 6 7 16 
6706 1 6 7.5 16.5 
6707 1 6.5 7 16.5 
6708 1 6.5 7.5 16 
6709 1 7 7 16 
6710 1 7 7.5 16.5 
6711 1 7.5 7 16.5 
6712 2 7.5 7.5 16 
6713 1 8 7 16 
6714 1 8 7.5 16.5 
6715 1 8.5 7 16.5 
6716 1 8.5 7.5 16 
6717 1 9 7 16 
6718 1 9 7.5 16.5 
6719 1 9.5 7 16.5 
6720 1 9.5 7.5 16 
6721 2 0 8 16 
6722 1 0 8.5 16.5 
6723 1 0.5 8 16.5 
6724 1 0.5 8.5 16 
6725 1 1 8 16 
6726 1 1 8.5 16.5 
6727 1 1.5 8 16.5 
6728 1 1.5 8.5 16 
6729 1 2 8 16 
6730 2 2 8.5 16.5 
6731 1 2.5 8 16.5 
6732 1 2.5 8.5 16 
6733 1 3 8 16 
6734 1 3 8.5 16.5 
6735 2 3.5 8 16.5 
6736 1 3.5 8.5 16 
6737 2 4 8 16 
6738 1 4 8.5 16.5 
6739 1 4.5 8 16.5 
6740 2 4.5 8.5 16 
6741 1 5 8 16 
6742 1 5 8.5 16.5 
6743 1 5.5 8 16.5 
6744 2 5.5 8.5 16 
6745 1 6 8 16 
6746 1 6 8.5 16.5 
6747 1 6.5 8 16.5 
6748 1 6.5 8.5 16 
6749 1 7 8 16 
6750 1 7 8.5 16.5 
6751 2 7.5 8 16.5 
6752 2 7.5 8.5 16 
6753 2 8 8 16 
6754 1 8 8.5 16.5 
6755 2 8.5 8 16.5 
6756 1 8.5 8.5 16 
6757 1 9 8 16 
6758 1 9 8.5 16.5 
6759 2 9.5 8 16.5 
6760 1 9.5 8.5 16 
6761 1 0 9 16 
6762 2 0 9.5 16.5 
6763 1 0.5 9 16.5 
6764 1 0.5 9.5 16 
6765 1 1 9 16 
6766 1 1 9.5 16.5 
6767 1 1.5 9 16.5 
6768 1 1.5 9.5 16 
6769 1 2 9 16 
6770 1 2 9.5 16.5 
6771 1 2.5 9 16.5 
6772 2 2.5 9.5 16 
6773 1 3 9 16 
6774 1 3 9.5 16.5 
6775 1 3.5 9 16.5 
6776 1 3.5 9.5 16 
6777 1 4 9 16 
6778 2 4 9.5 16.5 
6779 1 4.5 9 16.5 
6780 1 4.5 9.5 16 
6781 1 5 9 16 
6782 1 5 9.5 16.5 
6783 1 5.5 9 16.5 
6784 1 5.5 9.5 16 
6785 1 6 9 16 
6786 1 6 9.5 16.5 
6787 1 6.5 9 16.5 
6788 2 6.5 9.5 16 
6789 1 7 9 16 
6790 2 7 9.5 16.5 
6791 1 7.5 9 16.5 
6792 1 7.5 9.5 16 
6793 1 8 9 16 
6794 1 8 9.5 16.5 
6795 1 8.5 9 16.5 
6796 1 8.5 9.5 16 
6797 1 9 9 16 
6798 1 9 9.5 16.5 
6799 1 9.5 9 16.5 
6800 1 9.5 9.5 16 
6801 2 0 0 17 
6802 1 0 0.5 17.5 
6803 1 0.5 0 17.5 
6804 1 0.5 0.5 17 
6805 1 1 0 17 
6806 1 1 0.5 17.5 
6807 1 1.5 0 17.5 
6808 1 1.5 0.5 17 
6809 1 2 0 17 
6810 1 2 0.5 17.5 
6811 1 2.5 0 17.5 
6812 2 2.5 0.5 17 
6813 1 3 0 17 
6814 1 3 0.5 17.5 
6815 1 3.5 0 17.5 
6816 1 3.5 0.5 17 
6817 1 4 0 17 
6818 1 4 0.5 17.5 
6819 1 4.5 0 17.5 
6820 1 4.5 0.5 17 
6821 1 5 0 17 
6822 1 5 0.5 17.5 
6823 1 5.5 0 17.5 
6824 1 5.5 0.5 17 
6825 1 6 0 17 
6826 1 6 0.5 17.5 
6827 1 6.5 0 17.5 
6828 1 6.5 0.5 17 
6829 1 7 0 17 
6830 1 7 0.5 17.5 
6831 1 7.5 0 17.5 
6832 1 7.5 0.5 17 
6833 1 8 0 17 
6834 1 8 0.5 17.5 
6835 1 8.5 0 17.5 
6836 1 8.5 0.5 17 
6837 1 9 0 17 
6838 1 9 0.5 17.5 
6839 2 9.5 0 17.5 
6840 1 9.5 0.5 17 
6841 1 0 1 17 
6842 1 0 1.5 17.5 
6843 1 0.5 1 17.5 
6844 1 0.5 1.5 17 
6845 1 1 1 17 
6846 1 1 1.5 17.5 
6847 1 1.5 1 17.5 
6848 2 1.5 1.5 17 
6849 1 2 1 17 
6850 2 2 1.5 17.5 
6851 1 2.5 1 17.5 
6852 1 2.5 1.5 17 
6853 2 3 1 17 
6854 2 3 1.5 17.5 
6855 1 3.5 1 17.5 
6856 1 3.5 1.5 17 
6857 2 4 1 17 
6858 1 4 1.5 17.5 
6859 1 4.5 1 17.5 
6860 1 4.5 1.5 17 
6861 1 5 1 17 
6862 1 5 1.5 17.5 
6863 2 5.5 1 17.5 
6864 1 5.5 1.5 17 
6865 1 6 1 17 
6866 1 6 1.5 17.5 
6867 1 6.5 1 17.5 
6868 1 6.5 1.5 17 
6869 1 7 1 17 
6870 1 7 1.5 17.5 
6871 1 7.5 1 17.5 
6872 1 7.5 1.5 17 
6873 1 8 1 17 
6874 2 8 1.5 17.5 
6875 2 8.5 1 17.5 
6876 1 8.5 1.5 17 
6877 1 9 1 17 
6878 1 9 1.5 17.5 
6879 1 9.5 1 17.5 
6880 1 9.5 1.5 17 
6881 1 0 2 17 
6882 1 0 2.5 17.5 
6883 1 0.5 2 17.5 
6884 1 0.5 2.5 17 
6885 1 1 2 17 
6886 1 1 2.5 17.5 
6887 1 1.5 2 17.5 
6888 1 1.5 2.5 17 
6889 1 2 2 17 
6890 1 2 2.5 17.5 
6891 1 2.5 2 17.5 
6892 1 2.5 2.5 17 
6893 2 3 2 17 
6894 1 3 2.5 17.5 
6895 1 3.5 2 17.5 
6896 1 3.5 2.5 17 
6897 1 4 2 17 
6898 1 4 2.5 17.5 
6899 1 4.5 2 17.5 
6900 1 4.5 2.5 17 
6901 1 5 2 17 
6902 1 5 2.5 17.5 
6903 1 5.5 2 17.5 
6904 1 5.5 2.5 17 
6905 1 6 2 17 
6906 1 6 2.5 17.5 
6907 1 6.5 2 17.5 
6908 1 6.5 2.5 17 
6909 1 7 2 17 
6910 1 7 2.5 17.5 
6911 1 7.5 2 17.5 
6912 1 7.5 2.5 17 
6913 1 8 2 17 
6914 1 8 2.5 17.5 
6915 1 8.5 2 17.5 
6916 1 8.5 2.5 17 
6917 1 9 2 17 
6918 1 9 2.5 17.5 
6919 1 9.5 2 17.5 
6920 1 9.5 2.5 17 
6921 1 0 3 17 
6922 1 0 3.5 17.5 
6923 1 0.5 3 17.5 
6924 1 0.5 3.5 17 
6925 1 1 3 17 
6926 1 1 3.5 17.5 
6927 1 1.5 3 17.5 
6928 1 1.5 3.5 17 
6929 1 2 3 17 
6930 1 2 3.5 17.5 
6931 1 2.5 3 17.5 
6932 1 2.5 3.5 17 
6933 1 3 3 17 
6934 1 3 3.5 17.5 
6935 1 3.5 3 17.5 
6936 2 3.5 3.5 17 
6937 1 4 3 17 
6938 1 4 3.5 17.5 
6939 1 4.5 3 17.5 
6940 1 4.5 3.5 17 
6941 2 5 3 17 
6942 1 5 3.5 17.5 
6943 1 5.5 3 17.5 
6944 1 5.5 3.5 17 
6945 1 6 3 17 
6946 2 6 3.5 17.5 
6947 1 6.5 3 17.5 
6948 1 6.5 3.5 17 
6949 2 7 3 17 
6950 1 7 3.5 17.5 
6951 1 7.5 3 17.5 
6952 1 7.5 3.5 17 
6953 1 8 3 17 
6954 1 8 3.5 17.5 
6955 1 8.5 3 17.5 
6956 1 8.5 3.5 17 
6957 2 9 3 17 
6958 1 9 3.5 17.5 
6959 1 9.5 3 17.5 
6960 2 9.5 3.5 17 
6961 1 0 4 17 
6962 1 0 4.5 17.5 
6963 2 0.5 4 17.5 
6964 1 0.5 4.5 17 
6965 1 1 4 17 
6966 2 1 4.5 17.5 
6967 1 1.5 4 17.5 
6968 1 1.5 4.5 17 
6969 1 2 4 17 
6970 1 2 4.5 17.5 
6971 1 2.5 4 17.5 
6972 1 2.5 4.5 17 
6973 1 3 4 17 
6974 2 3 4.5 17.5 
6975 1 3.5 4 17.5 
6976 1 3.5 4.5 17 
6977 2 4 4 17 
6978 1 4 4.5 17.5 
6979 1 4.5 4 17.5 
6980 1 4.5 4.5 17 
6981 1 5 4 17 
6982 1 5 4.5 17.5 
6983 1 5.5 4 17.5 
6984 1 5.5 4.5 17 
6985 1 6 4 17 
6986 1 6 4.5 17.5 
6987 1 6.5 4 17.5 
6988 1 6.5 4.5 17 
6989 1 7 4 17 
6990 1 7 4.5 17.5 
6991 1 7.5 4 17.5 
6992 1 7.5 4.5 17 
6993 1 8 4 17 
6994 1 8 4.5 17.5 
6995 1 8.5 4 17.5 
6996 1 8.5 4.5 17 
6997 1 9 4 17 
6998 1 9 4.5 17.5 
6999 1 9.5 4 17.5 
7000 1 9.5 4.5 17 
7001 1 0 5 17 
7002 1 0 5.5 17.5 
7003 1 0.5 5 17.5 
7004 1 0.5 5.5 17 
7005 1 1 5 17 
7006 1 1 5.5 17.5 
7007 1 1.5 5 17.5 
7008 2 1.5 5.5 17 
7009 1 2 5 17 
7010 1 2 5.5 17.5 
7011 1 2.5 5 17.5 
7012 1 2.5 5.5 17 
7013 1 3 5 17 
7014 1 3 5.5 17.5 
7015 1 3.5 5 17.5 
7016 1 3.5 5.5 17 
7017 1 4 5 17 
7018 1 4 5.5 17.5 
7019 1 4.5 5 17.5 
7020 1 4.5 5.5 17 
7021 1 5 5 17 
7022 1 5 5.5 17.5 
7023 1 5.5 5 17.5 
7024 1 5.5 5.5 17 
7025 1 6 5 17 
7026 1 6 5.5 17.5 
7027 1 6.5 5 17.5 
7028 1 6.5 5.5 17 
7029 1 7 5 17 
7030 1 7 5.5 17.5 
7031 1 7.5 5 17.5 
7032 1 7.5 5.5 17 
7033 1 8 5 17 
7034 1 8 5.5 17.5 
7035 1 8.5 5 17.5 
7036 1 8.5 5.5 17 
7037 1 9 5 17 
7038 1 9 5.5 17.5 
7039 1 9.5 5 17.5 
7040 1 9.5 5.5 17 
7041 1 0 6 17 
7042 1 0 6.5 17.5 
7043 1 0.5 6 17.5 
7044 1 0.5 6.5 17 
7045 1 1 6 17 
7046 1 1 6.5 17.5 
7047 1 1.5 6 17.5 
7048 1 1.5 6.5 17 
7049 1 2 6 17 
7050 1 2 6.5 17.5 
7051 1 2.5 6 17.5 
7052 2 2.5 6.5 17 
7053 1 3 6 17 
7054 2 3 6.5 17.5 
7055 2 3.5 6 17.5 
7056 1 3.5 6.5 17 
7057 1 4 6 17 
7058 2 4 6.5 17.5 
7059 1 4.5 6 17.5 
7060 2 4.5 6.5 17 
7061 1 5 6 17 
7062 1 5 6.5 17.5 
7063 1 5.5 6 17.5 
7064 1 5.5 6.5 17 
7065 1 6 6 17 
7066 1 6 6.5 17.5 
7067 1 6.5 6 17.5 
7068 2 6.5 6.5 17 
7069 1 7 6 17 
7070 1 7 6.5 17.5 
7071 1 7.5 6 17.5 
7072 1 7.5 6.5 17 
7073 2 8 6 17 
7074 1 8 6.5 17.5 
7075 1 8.5 6 17.5 
7076 1 8.5 6.5 17 
7077 1 9 6 17 
7078 1 9 6.5 17.5 
7079 1 9.5 6 17.5 
7080 1 9.5 6.5 17 
7081 1 0 7 17 
7082 2 0 7.5 17.5 
7083 2 0.5 7 17.5 
7084 1 0.5 7.5 17 
7085 2 1 7 17 
7086 1 1 7.5 17.5 
7087 1 1.5 7 17.5 
7088 2 1.5 7.5 17 
7089 1 2 7 17 
7090 1 2 7.5 17.5 
7091 2 2.5 7 17.5 
7092 1 2.5 7.5 17 
7093 1 3 7 17 
7094 1 3 7.5 17.5 
7095 2 3.5 7 17.5 
7096 1 3.5 7.5 17 
7097 1 4 7 17 
7098 1 4 7.5 17.5 
7099 1 4.5 7 17.5 
7100 1 4.5 7.5 17 
7101 1 5 7 17 
7102 1 5 7.5 17.5 
7103 1 5.5 7 17.5 
7104 1 5.5 7.5 17 
7105 1 6 7 17 
7106 1 6 7.5 17.5 
7107 1 6.5 7 17.5 
7108 1 6.5 7.5 17 
7109 1 7 7 17 
7110 1 7 7.5 17.5 
7111 1 7.5 7 17.5 
7112 1 7.5 7.5 17 
7113 1 8 7 17 
7114 1 8 7.5 17.5 
7115 1 8.5 7 17.5 
7116 1 8.5 7.5 17 
7117 1 9 7 17 
7118 1 9 7.5 17.5 
7119 1 9.5 7 17.5 
7120 1 9.5 7.5 17 
7121 1 0 8 17 
7122 1 0 8.5 17.5 
7123 1 0.5 8 17.5 
7124 1 0.5 8.5 17 
7125 2 1 8 17 
7126 1 1 8.5 17.5 
7127 1 1.5 8 17.5 
7128 1 1.5 8.5 17 
7129 1 2 8 17 
7130 1 2 8.5 17.5 
7131 1 2.5 8 17.5 
7132 1 2.5 8.5 17 
7133 1 3 8 17 
7134 2 3 8.5 17.5 
7135 1 3.5 8 17.5 
7136 2 3.5 8.5 17 
7137 1 4 8 17 
7138 1 4 8.5 17.5 
7139 1 4.5 8 17.5 
7140 1 4.5 8.5 17 
7141 1 5 8 17 
7142 1 5 8.5 17.5 
7143 1 5.5 8 17.5 
7144 1 5.5 8.5 17 
7145 1 6 8 17 
7146 1 6 8.5 17.5 
7147 1 6.5 8 17.5 
7148 1 6.5 8.5 17 
7149 2 7 8 17 
7150 1 7 8.5 17.5 
7151 1 7.5 8 17.5 
7152 1 7.5 8.5 17 
7153 2 8 8 17 
7154 1 8 8.5 17.5 
7155 1 8.5 8 17.5 
7156 2 8.5 8.5 17 
7157 1 9 8 17 
7158 1 9 8.5 17.5 
7159 1 9.5 8 17.5 
7160 1 9.5 8.5 17 
7161 1 0 9 17 
7162 1 0 9.5 17.5 
7163 1 0.5 9 17.5 
7164 1 0.5 9.5 17 
7165 1 1 9 17 
7166 1 1 9.5 17.5 
7167 1 1.5 9 17.5 
7168 1 1.5 9.5 17 
7169 1 2 9 17 
7170 1 2 9.5 17.5 
7171 1 2.5 9 17.5 
7172 1 2.5 9.5 17 
7173 2 3 9 17 
7174 1 3 9.5 17.5 
7175 1 3.5 9 17.5 
7176 1 3.5 9.5 17 
7177 1 4 9 17 
7178 1 4 9.5 17.5 
7179 1 4.5 9 17.5 
7180 1 4.5 9.5 17 
7181 1 5 9 17 
7182 1 5 9.5 17.5 
7183 1 5.5 9 17.5 
7184 1 5.5 9.5 17 
7185 1 6 9 17 
7186 1 6 9.5 17.5 
7187 1 6.5 9 17.5 
7188 1 6.5 9.5 17 
7189 2 7 9 17 
7190 1 7 9.5 17.5 
7191 1 7.5 9 17.5 
7192 2 7.5 9.5 17 
7193 1 8 9 17 
7194 1 8 9.5 17.5 
7195 1 8.5 9 17.5 
7196 1 8.5 9.5 17 
7197 1 9 9 17 
7198 1 9 9.5 17.5 
7199 1 9.5 9 17.5 
7200 1 9.5 9.5 17 
7201 1 0 0 18 
7202 1 0 0.5 18.5 
7203 1 0.5 0 18.5 
7204 1 0.5 0.5 18 
7205 1 1 0 18 
7206 1 1 0.5 18.5 
7207 2 1.5 0 18.5 
7208 1 1.5 0.5 18 
7209 1 2 0 18 
7210 1 2 0.5 18.5 
7211 1 2.5 0 18.5 
7212 1 2.5 0.5 18 
7213 1 3 0 18 
7214 2 3 0.5 18.5 
7215 1 3.5 0 18.5 
7216 1 3.5 0.5 18 
7217 1 4 0 18 
7218 1 4 0.5 18.5 
7219 1 4.5 0 18.5 
7220 1 4.5 0.5 18 
7221 2 5 0 18 
7222 1 5 0.5 18.5 
7223 1 5.5 0 18.5 
7224 1 5.5 0.5 18 
7225 1 6 0 18 
7226 1 6 0.5 18.5 
7227 1 6.5 0 18.5 
7228 1 6.5 0.5 18 
7229 1 7 0 18 
7230 1 7 0.5 18.5 
7231 1 7.5 0 18.5 
7232 2 7.5 0.5 18 
7233 2 8 0 18 
7234 1 8 0.5 18.5 
7235 1 8.5 0 18.5 
7236 2 8.5 0.5 18 
7237 1 9 0 18 
7238 1 9 0.5 18.5 
7239 1 9.5 0 18.5 
7240 1 9.5 0.5 18 
7241 1 0 1 18 
7242 1 0 1.5 18.5 
7243 1 0.5 1 18.5 
7244 1 0.5 1.5 18 
7245 1 1 1 18 
7246 2 1 1.5 18.5 
7247 1 1.5 1 18.5 
7248 1 1.5 1.5 18 
7249 1 2 1 18 
7250 1 2 1.5 18.5 
7251 1 2.5 1 18.5 
7252 1 2.5 1.5 18 
7253 1 3 1 18 
7254 1 3 1.5 18.5 
7255 1 3.5 1 18.5 
7256 1 3.5 1.5 18 
7257 1 4 1 18 
7258 1 4 1.5 18.5 
7259 1 4.5 1 18.5 
7260 1 4.5 1.5 18 
7261 2 5 1 18 
7262 1 5 1.5 18.5 
7263 1 5.5 1 18.5 
7264 1 5.5 1.5 18 
7265 1 6 1 18 
7266 2 6 1.5 18.5 
7267 1 6.5 1 18.5 
7268 2 6.5 1.5 18 
7269 1 7 1 18 
7270 1 7 1.5 18.5 
7271 2 7.5 1 18.5 
7272 2 7.5 1.5 18 
7273 1 8 1 18 
7274 1 8 1.5 18.5 
7275 1 8.5 1 18.5 
7276 1 8.5 1.5 18 
7277 1 9 1 18 
7278 1 9 1.5 18.5 
7279 1 9.5 1 18.5 
7280 1 9.5 1.5 18 
7281 1 0 2 18 
7282 1 0 2.5 18.5 
7283 1 0.5 2 18.5 
7284 1 0.5 2.5 18 
7285 1 1 2 18 
7286 1 1 2.5 18.5 
7287 1 1.5 2 18.5 
7288 2 1.5 2.5 18 
7289 1 2 2 18 
7290 1 2 2.5 18.5 
7291 1 2.5 2 18.5 
7292 1 2.5 2.5 18 
7293 1 3 2 18 
7294 1 3 2.5 18.5 
7295 1 3.5 2 18.5 
7296 1 3.5 2.5 18 
7297 1 4 2 18 
7298 1 4 2.5 18.5 
7299 1 4.5 2 18.5 
7300 1 4.5 2.5 18 
7301 1 5 2 18 
7302 1 5 2.5 18.5 
7303 1 5.5 2 18.5 
7304 1 5.5 2.5 18 
7305 1 6 2 18 
7306 1 6 2.5 18.5 
7307 1 6.5 2 18.5 
7308 1 6.5 2.5 18 
7309 1 7 2 18 
7310 1 7 2.5 18.5 
7311 1 7.5 2 18.5 
7312 1 7.5 2.5 18 
7313 1 8 2 18 
7314 1 8 2.5 18.5 
7315 1 8.5 2 18.5 
7316 1 8.5 2.5 18 
7317 1 9 2 18 
7318 1 9 2.5 18.5 
7319 1 9.5 2 18.5 
7320 1 9.5 2.5 18 
7321 1 0 3 18 
7322 1 0 3.5 18.5 
7323 1 0.5 3 18.5 
7324 1 0.5 3.5 18 
7325 1 1 3 18 
7326 1 1 3.5 18.5 
7327 1 1.5 3 18.5 
7328 1 1.5 3.5 18 
7329 1 2 3 18 
7330 1 2 3.5 18.5 
7331 1 2.5 3 18.5 
7332 1 2.5 3.5 18 
7333 1 3 3 18 
7334 1 3 3.5 18.5 
7335 1 3.5 3 18.5 
7336 1 3.5 3.5 18 
7337 1 4 3 18 
7338 1 4 3.5 18.5 
7339 1 4.5 3 18.5 
7340 1 4.5 3.5 18 
7341 1 5 3 18 
7342 2 5 3.5 18.5 
7343 1 5.5 3 18.5 
7344 1 5.5 3.5 18 
7345 1 6 3 18 
7346 2 6 3.5 18.5 
7347 1 6.5 3 18.5 
7348 1 6.5 3.5 18 
7349 1 7 3 18 
7350 1 7 3.5 18.5 
7351 1 7.5 3 18.5 
7352 2 7.5 3.5 18 
7353 1 8 3 18 
7354 1 8 3.5 18.5 
7355 1 8.5 3 18.5 
7356 1 8.5 3.5 18 
7357 1 9 3 18 
7358 1 9 3.5 18.5 
7359 1 9.5 3 18.5 
7360 1 9.5 3.5 18 
7361 1 0 4 18 
7362 1 0 4.5 18.5 
7363 1 0.5 4 18.5 
7364 1 0.5 4.5 18 
7365 1 1 4 18 
7366 1 1 4.5 18.5 
7367 1 1.5 4 18.5 
7368 1 1.5 4.5 18 
7369 1 2 4 18 
7370 1 2 4.5 18.5 
7371 1 2.5 4 18.5 
7372 1 2.5 4.5 18 
7373 1 3 4 18 
7374 1 3 4.5 18.5 
7375 1 3.5 4 18.5 
7376 1 3.5 4.5 18 
7377 1 4 4 18 
7378 1 4 4.5 18.5 
7379 1 4.5 4 18.5 
7380 1 4.5 4.5 18 
7381 1 5 4 18 
7382 2 5 4.5 18.5 
7383 1 5.5 4 18.5 
7384 1 5.5 4.5 18 
7385 1 6 4 18 
7386 2 6 4.5 18.5 
7387 1 6.5 4 18.5 
7388 1 6.5 4.5 18 
7389 1 7 4 18 
7390 1 7 4.5 18.5 
7391 1 7.5 4 18.5 
7392 1 7.5 4.5 18 
7393 2 8 4 18 
7394 1 8 4.5 18.5 
7395 1 8.5 4 18.5 
7396 1 8.5 4.5 18 
7397 1 9 4 18 
7398 1 9 4.5 18.5 
7399 1 9.5 4 18.5 
7400 1 9.5 4.5 18 
7401 1 0 5 18 
7402 1 0 5.5 18.5 
7403 1 0.5 5 18.5 
7404 2 0.5 5.5 18 
7405 1 1 5 18 
7406 1 1 5.5 18.5 
7407 1 1.5 5 18.5 
7408 1 1.5 5.5 18 
7409 1 2 5 18 
7410 1 2 5.5 18.5 
7411 1 2.5 5 18.5 
7412 1 2.5 5.5 18 
7413 1 3 5 18 
7414 1 3 5.5 18.5 
7415 1 3.5 5 18.5 
7416 1 3.5 5.5 18 
7417 1 4 5 18 
7418 1 4 5.5 18.5 
7419 1 4.5 5 18.5 
7420 1 4.5 5.5 18 
7421 1 5 5 18 
7422 1 5 5.5 18.5 
7423 1 5.5 5 18.5 
7424 2 5.5 5.5 18 
7425 1 6 5 18 
7426 1 6 5.5 18.5 
7427 1 6.5 5 18.5 
7428 1 6.5 5.5 18 
7429 1 7 5 18 
7430 2 7 5.5 18.5 
7431 1 7.5 5 18.5 
7432 1 7.5 5.5 18 
7433 1 8 5 18 
7434 1 8 5.5 18.5 
7435 1 8.5 5 18.5 
7436 1 8.5 5.5 18 
7437 2 9 5 18 
7438 1 9 5.5 18.5 
7439 1 9.5 5 18.5 
7440 1 9.5 5.5 18 
7441 1 0 6 18 
7442 2 0 6.5 18.5 
7443 1 0.5 6 18.5 
7444 1 0.5 6.5 18 
7445 1 1 6 18 
7446 1 1 6.5 18.5 
7447 1 1.5 6 18.5 
7448 1 1.5 6.5 18 
7449 1 2 6 18 
7450 2 2 6.5 18.5 
7451 1 2.5 6 18.5 
7452 1 2.5 6.5 18 
7453 1 3 6 18 
7454 1 3 6.5 18.5 
7455 1 3.5 6 18.5 
7456 1 3.5 6.5 18 
7457 1 4 6 18 
7458 1 4 6.5 18.5 
7459 2 4.5 6 18.5 
7460 1 4.5 6.5 18 
7461 2 5 6 18 
7462 1 5 6.5 18.5 
7463 1 5.5 6 18.5 
7464 1 5.5 6.5 18 
7465 1 6 6 18 
7466 1 6 6.5 18.5 
7467 1 6.5 6 18.5 
7468 1 6.5 6.5 18 
7469 1 7 6 18 
7470 1 7 6.5 18.5 
7471 1 7.5 6 18.5 
7472 1 7.5 6.5 18 
7473 1 8 6 18 
7474 1 8 6.5 18.5 
7475 1 8.5 6 18.5 
7476 1 8.5 6.5 18 
7477 1 9 6 18 
7478 1 9 6.5 18.5 
7479 1 9.5 6 18.5 
7480 1 9.5 6.5 18 
7481 1 0 7 18 
7482 1 0 7.5 18.5 
7483 2 0.5 7 18.5 
7484 1 0.5 7.5 18 
7485 1 1 7 18 
7486 1 1 7.5 18.5 
7487 1 1.5 7 18.5 
7488 1 1.5 7.5 18 
7489 1 2 7 18 
7490 1 2 7.5 18.5 
7491 1 2.5 7 18.5 
7492 1 2.5 7.5 18 
7493 1 3 7 18 
7494 1 3 7.5 18.5 
7495 1 3.5 7 18.5 
7496 1 3.5 7.5 18 
7497 1 4 7 18 
7498 2 4 7.5 18.5 
7499 1 4.5 7 18.5 
7500 1 4.5 7.5 18 
7501 1 5 7 18 
7502 1 5 7.5 18.5 
7503 1 5.5 7 18.5 
7504 1 5.5 7.5 18 
7505 1 6 7 18 
7506 1 6 7.5 18.5 
7507 1 6.5 7 18.5 
7508 1 6.5 7.5 18 
7509 1 7 7 18 
7510 1 7 7.5 18.5 
7511 1 7.5 7 18.5 
7512 1 7.5 7.5 18 
7513 1 8 7 18 
7514 1 8 7.5 18.5 
7515 1 8.5 7 18.5 
7516 1 8.5 7.5 18 
7517 1 9 7 18 
7518 1 9 7.5 18.5 
7519 1 9.5 7 18.5 
7520 1 9.5 7.5 18 
7521 1 0 8 18 
7522 2 0 8.5 18.5 
7523 1 0.5 8 18.5 
7524 1 0.5 8.5 18 
7525 1 1 8 18 
7526 1 1 8.5 18.5 
7527 2 1.5 8 18.5 
7528 1 1.5 8.5 18 
7529 1 2 8 18 
7530 1 2 8.5 18.5 
7531 1 2.5 8 18.5 
7532 1 2.5 8.5 18 
7533 1 3 8 18 
7534 1 3 8.5 18.5 
7535 1 3.5 8 18.5 
7536 1 3.5 8.5 18 
7537 1 4 8 18 
7538 1 4 8.5 18.5 
7539 1 4.5 8 18.5 
7540 1 4.5 8.5 18 
7541 2 5 8 18 
7542 1 5 8.5 18.5 
7543 1 5.5 8 18.5 
7544 1 5.5 8.5 18 
7545 1 6 8 18 
7546 1 6 8.5 18.5 
7547 1 6.5 8 18.5 
7548 1 6.5 8.5 18 
7549 1 7 8 18 
7550 1 7 8.5 18.5 
7551 1 7.5 8 18.5 
7552 1 7.5 8.5 18 
7553 1 8 8 18 
7554 1 8 8.5 18.5 
7555 1 8.5 8 18.5 
7556 1 8.5 8.5 18 
7557 1 9 8 18 
7558 1 9 8.5 18.5 
7559 2 9.5 8 18.5 
7560 1 9.5 8.5 18 
7561 1 0 9 18 
7562 1 0 9.5 18.5 
7563 1 0.5 9 18.5 
7564 1 0.5 9.5 18 
7565 1 1 9 18 
7566 1 1 9.5 18.5 
7567 1 1.5 9 18.5 
7568 1 1.5 9.5 18 
7569 1 2 9 18 
7570 1 2 9.5 18.5 
7571 1 2.5 9 18.5 
7572 1 2.5 9.5 18 
7573 1 3 9 18 
7574 1 3 9.5 18.5 
7575 1 3.5 9 18.5 
7576 1 3.5 9.5 18 
7577 1 4 9 18 
7578 1 4 9.5 18.5 
7579 1 4.5 9 18.5 
7580 1 4.5 9.5 18 
7581 1 5 9 18 
7582 1 5 9.5 18.5 
7583 2 5.5 9 18.5 
7584 1 5.5 9.5 18 
7585 1 6 9 18 
7586 1 6 9.5 18.5 
7587 1 6.5 9 18.5 
7588 1 6.5 9.5 18 
7589 1 7 9 18 
7590 1 7 9.5 18.5 
7591 2 7.5 9 18.5 
7592 1 7.5 9.5 18 
7593 1 8 9 18 
7594 2 8 9.5 18.5 
7595 1 8.5 9 18.5 
7596 1 8.5 9.5 18 
7597 1 9 9 18 
7598 1 9 9.5 18.5 
7599 1 9.5 9 18.5 
7600 2 9.5 9.5 18 
7601 1 0 0 19 
7602 1 0 0.5 19.5 
7603 1 0.5 0 19.5 
7604 1 0.5 0.5 19 
7605 1 1 0 19 
7606 1 1 0.5 19.5 
7607 1 1.5 0 19.5 
7608 1 1.5 0.5 19 
7609 1 2 0 19 
7610 1 2 0.5 19.5 
7611 1 2.5 0 19.5 
7612 1 2.5 0.5 19 
7613 1 3 0 19 
7614 1 3 0.5 19.5 
7615 1 3.5 0 19.5 
7616 1 3.5 0.5 19 
7617 1 4 0 19 
7618 1 4 0.5 19.5 
7619 1 4.5 0 19.5 
7620 1 4.5 0.5 19 
7621 1 5 0 19 
7622 1 5 0.5 19.5 
7623 1 5.5 0 19.5 
7624 1 5.5 0.5 19 
7625 2 6 0 19 
7626 1 6 0.5 19.5 
7627 1 6.5 0 19.5 
7628 1 6.5 0.5 19 
7629 1 7 0 19 
7630 1 7 0.5 19.5 
7631 1 7.5 0 19.5 
7632 1 7.5 0.5 19 
7633 1 8 0 19 
7634 1 8 0.5 19.5 
7635 1 8.5 0 19.5 
7636 1 8.5 0.5 19 
7637 1 9 0 19 
7638 1 9 0.5 19.5 
7639 1 9.5 0 19.5 
7640 1 9.5 0.5 19 
7641 1 0 1 19 
7642 1 0 1.5 19.5 
7643 1 0.5 1 19.5 
7644 1 0.5 1.5 19 
7645 1 1 1 19 
7646 1 1 1.5 19.5 
7647 1 1.5 1 19.5 
7648 1 1.5 1.5 19 
7649 1 2 1 19 
7650 1 2 1.5 19.5 
7651 1 2.5 1 19.5 
7652 1 2.5 1.5 19 
7653 1 3 1 19 
7654 1 3 1.5 19.5 
7655 1 3.5 1 19.5 
7656 1 3.5 1.5 19 
7657 1 4 1 19 
7658 1 4 1.5 19.5 
7659 1 4.5 1 19.5 
7660 1 4.5 1.5 19 
7661 1 5 1 19 
7662 1 5 1.5 19.5 
7663 1 5.5 1 19.5 
7664 1 5.5 1.5 19 
7665 1 6 1 19 
7666 1 6 1.5 19.5 
7667 1 6.5 1 19.5 
7668 1 6.5 1.5 19 
7669 1 7 1 19 
7670 1 7 1.5 19.5 
7671 1 7.5 1 19.5 
7672 1 7.5 1.5 19 
7673 1 8 1 19 
7674 1 8 1.5 19.5 
7675 1 8.5 1 19.5 
7676 1 8.5 1.5 19 
7677 1 9 1 19 
7678 1 9 1.5 19.5 
7679 1 9.5 1 19.5 
7680 1 9.5 1.5 19 
7681 1 0 2 19 
7682 1 0 2.5 19.5 
7683 1 0.5 2 19.5 
7684 1 0.5 2.5 19 
7685 1 1 2 19 
7686 1 1 2.5 19.5 
7687 1 1.5 2 19.5 
7688 1 1.5 2.5 19 
7689 1 2 2 19 
7690 1 2 2.5 19.5 
7691 1 2.5 2 19.5 
7692 1 2.5 2.5 19 
7693 1 3 2 19 
7694 1 3 2.5 19.5 
7695 1 3.5 2 19.5 
7696 1 3.5 2.5 19 
7697 1 4 2 19 
7698 1 4 2.5 19.5 
7699 1 4.5 2 19.5 
7700 1 4.5 2.5 19 
7701 1 5 2 19 
7702 2 5 2.5 19.5 
7703 1 5.5 2 19.5 
7704 1 5.5 2.5 19 
7705 1 6 2 19 
7706 1 6 2.5 19.5 
7707 1 6.5 2 19.5 
7708 1 6.5 2.5 19 
7709 1 7 2 19 
7710 1 7 2.5 19.5 
7711 1 7.5 2 19.5 
7712 1 7.5 2.5 19 
7713 1 8 2 19 
7714 1 8 2.5 19.5 
7715 1 8.5 2 19.5 
7716 1 8.5 2.5 19 
7717 1 9 2 19 
7718 1 9 2.5 19.5 
7719 1 9.5 2 19.5 
7720 1 9.5 2.5 19 
7721 1 0 3 19 
7722 1 0 3.5 19.5 
7723 1 0.5 3 19.5 
7724 1 0.5 3.5 19 
7725 1 1 3 19 
7726 1 1 3.5 19.5 
7727 1 1.5 3 19.5 
7728 1 1.5 3.5 19 
7729 1 2 3 19 
7730 1 2 3.5 19.5 
7731 1 2.5 3 19.5 
7732 1 2.5 3.5 19 
7733 1 3 3 19 
7734 1 3 3.5 19.5 
7735 2 3.5 3 19.5 
7736 1 3.5 3.5 19 
7737 1 4 3 19 
7738 1 4 3.5 19.5 
7739 1 4.5 3 19.5 
7740 1 4.5 3.5 19 
7741 1 5 3 19 
7742 1 5 3.5 19.5 
7743 1 5.5 3 19.5 
7744 1 5.5 3.5 19 
7745 1 6 3 19 
7746 1 6 3.5 19.5 
7747 1 6.5 3 19.5 
7748 1 6.5 3.5 19 
7749 1 7 3 19 
7750 1 7 3.5 19.5 
7751 1 7.5 3 19.5 
7752 1 7.5 3.5 19 
7753 1 8 3 19 
7754 1 8 3.5 19.5 
7755 1 8.5 3 19.5 
7756 1 8.5 3.5 19 
7757 1 9 3 19 
7758 1 9 3.5 19.5 
7759 1 9.5 3 19.5 
7760 1 9.5 3.5 19 
7761 1 0 4 19 
7762 1 0 4.5 19.5 
7763 1 0.5 4 19.5 
7764 2 0.5 4.5 19 
7765 1 1 4 19 
7766 1 1 4.5 19.5 
7767 1 1.5 4 19.5 
7768 1 1.5 4.5 19 
7769 1 2 4 19 
7770 1 2 4.5 19.5 
7771 1 2.5 4 19.5 
7772 1 2.5 4.5 19 
7773 1 3 4 19 
7774 1 3 4.5 19.5 
7775 1 3.5 4 19.5 
7776 1 3.5 4.5 19 
7777 1 4 4 19 
7778 1 4 4.5 19.5 
7779 1 4.5 4 19.5 
7780 1 4.5 4.5 19 
7781 1 5 4 19 
7782 1 5 4.5 19.5 
7783 1 5.5 4 19.5 
7784 1 5.5 4.5 19 
7785 1 6 4 19 
7786 1 6 4.5 19.5 
7787 1 6.5 4 19.5 
7788 1 6.5 4.5 19 
7789 1 7 4 19 
7790 1 7 4.5 19.5 
7791 1 7.5 4 19.5 
7792 1 7.5 4.5 19 
7793 1 8 4 19 
7794 1 8 4.5 19.5 
7795 1 8.5 4 19.5 
7796 1 8.5 4.5 19 
7797 2 9 4 19 
7798 1 9 4.5 19.5 
7799 1 9.5 4 19.5 
7800 1 9.5 4.5 19 
7801 1 0 5 19 
7802 1 0 5.5 19.5 
7803 1 0.5 5 19.5 
7804 1 0.5 5.5 19 
7805 1 1 5 19 
7806 1 1 5.5 19.5 
7807 1 1.5 5 19.5 
7808 1 1.5 5.5 19 
7809 1 2 5 19 
7810 1 2 5.5 19.5 
7811 1 2.5 5 19.5 
7812 1 2.5 5.5 19 
7813 1 3 5 19 
7814 1 3 5.5 19.5 
7815 1 3.5 5 19.5 
7816 1 3.5 5.5 19 
7817 1 4 5 19 
7818 1 4 5.5 19.5 
7819 1 4.5 5 19.5 
7820 1 4.5 5.5 19 
7821 1 5 5 19 
7822 1 5 5.5 19.5 
7823 1 5.5 5 19.5 
7824 1 5.5 5.5 19 
7825 1 6 5 19 
7826 1 6 5.5 19.5 
7827 2 6.5 5 19.5 
7828 1 6.5 5.5 19 
7829 1 7 5 19 
7830 1 7 5.5 19.5 
7831 1 7.5 5 19.5 
7832 1 7.5 5.5 19 
7833 1 8 5 19 
7834 1 8 5.5 19.5 
7835 1 8.5 5 19.5 
7836 1 8.5 5.5 19 
7837 1 9 5 19 
7838 1 9 5.5 19.5 
7839 1 9.5 5 19.5 
7840 1 9.5 5.5 19 
7841 2 0 6 19 
7842 1 0 6.5 19.5 
7843 1 0.5 6 19.5 
7844 1 0.5 6.5 19 
7845 1 1 6 19 
7846 1 1 6.5 19.5 
7847 1 1.5 6 19.5 
7848 1 1.5 6.5 19 
7849 1 2 6 19 
7850 1 2 6.5 19.5 
7851 1 2.5 6 19.5 
7852 1 2.5 6.5 19 
7853 1 3 6 19 
7854 1 3 6.5 19.5 
7855 1 3.5 6 19.5 
7856 1 3.5 6.5 19 
7857 1 4 6 19 
7858 1 4 6.5 19.5 
7859 1 4.5 6 19.5 
7860 1 4.5 6.5 19 
7861 1 5 6 19 
7862 1 5 6.5 19.5 
7863 1 5.5 6 19.5 
7864 1 5.5 6.5 19 
7865 1 6 6 19 
7866 1 6 6.5 19.5 
7867 1 6.5 6 19.5 
7868 1 6.5 6.5 19 
7869 2 7 6 19 
7870 1 7 6.5 19.5 
7871 1 7.5 6 19.5 
7872 1 7.5 6.5 19 
7873 1 8 6 19 
7874 1 8 6.5 19.5 
7875 1 8.5 6 19.5 
7876 1 8.5 6.5 19 
7877 1 9 6 19 
7878 1 9 6.5 19.5 
7879 1 9.5 6 19.5 
7880 1 9.5 6.5 19 
7881 2 0 7 19 
7882 2 0 7.5 19.5 
7883 1 0.5 7 19.5 
7884 1 0.5 7.5 19 
7885 1 1 7 19 
7886 1 1 7.5 19.5 
7887 1 1.5 7 19.5 
7888 1 1.5 7.5 19 
7889 1 2 7 19 
7890 1 2 7.5 19.5 
7891 1 2.5 7 19.5 
7892 1 2.5 7.5 19 
7893 1 3 7 19 
7894 1 3 7.5 19.5 
7895 1 3.5 7 19.5 
7896 1 3.5 7.5 19 
7897 1 4 7 19 
7898 1 4 7.5 19.5 
7899 1 4.5 7 19.5 
7900 1 4.5 7.5 19 
7901 1 5 7 19 
7902 1 5 7.5 19.5 
7903 1 5.5 7 19.5 
7904 1 5.5 7.5 19 
7905 1 6 7 19 
7906 1 6 7.5 19.5 
7907 1 6.5 7 19.5 
7908 1 6.5 7.5 19 
7909 1 7 7 19 
7910 1 7 7.5 19.5 
7911 1 7.5 7 19.5 
7912 1 7.5 7.5 19 
7913 1 8 7 19 
7914 1 8 7.5 19.5 
7915 1 8.5 7 19.5 
7916 1 8.5 7.5 19 
7917 1 9 7 19 
7918 1 9 7.5 19.5 
7919 1 9.5 7 19.5 
7920 1 9.5 7.5 19 
7921 1 0 8 19 
7922 1 0 8.5 19.5 
7923 1 0.5 8 19.5 
7924 1 0.5 8.5 19 
7925 1 1 8 19 
7926 1 1 8.5 19.5 
7927 1 1.5 8 19.5 
7928 1 1.5 8.5 19 
7929 2 2 8 19 
7930 1 2 8.5 19.5 
7931 1 2.5 8 19.5 
7932 1 2.5 8.5 19 
7933 1 3 8 19 
7934 1 3 8.5 19.5 
7935 1 3.5 8 19.5 
7936 1 3.5 8.5 19 
7937 1 4 8 19 
7938 1 4 8.5 19.5 
7939 1 4.5 8 19.5 
7940 1 4.5 8.5 19 
7941 1 5 8 19 
7942 1 5 8.5 19.5 
7943 1 5.5 8 19.5 
7944 1 5.5 8.5 19 
7945 1 6 8 19 
7946 1 6 8.5 19.5 
7947 1 6.5 8 19.5 
7948 1 6.5 8.5 19 
7949 1 7 8 19 
7950 1 7 8.5 19.5 
7951 1 7.5 8 19.5 
7952 1 7.5 8.5 19 
7953 1 8 8 19 
7954 1 8 8.5 19.5 
7955 1 8.5 8 19.5 
7956 1 8.5 8.5 19 
7957 1 9 8 19 
7958 1 9 8.5 19.5 
7959 1 9.5 8 19.5 
7960 2 9.5 8.5 19 
7961 1 0 9 19 
7962 1 0 9.5 19.5 
7963 1 0.5 9 19.5 
7964 1 0.5 9.5 19 
7965 1 1 9 19 
7966 1 1 9.5 19.5 
7967 1 1.5 9 19.5 
7968 2 1.5 9.5 19 
7969 1 2 9 19 
7970 1 2 9.5 19.5 
7971 1 2.5 9 19.5 
7972 1 2.5 9.5 19 
7973 1 3 9 19 
7974 1 3 9.5 19.5 
7975 1 3.5 9 19.5 
7976 1 3.5 9.5 19 
7977 1 4 9 19 
7978 1 4 9.5 19.5 
7979 1 4.5 9 19.5 
7980 1 4.5 9.5 19 
7981 1 5 9 19 
7982 1 5 9.5 19.5 
7983 1 5.5 9 19.5 
7984 1 5.5 9.5 19 
7985 1 6 9 19 
7986 1 6 9.5 19.5 
7987 2 6.5 9 19.5 
7988 1 6.5 9.5 19 
7989 1 7 9 19 
7990 1 7 9.5 19.5 
7991 1 7.5 9 19.5 
7992 1 7.5 9.5 19 
7993 1 8 9 19 
7994 1 8 9.5 19.5 
7995 1 8.5 9 19.5 
7996 1 8.5 9.5 19 
7997 1 9 9 19 
7998 1 9 9.5 19.5 
7999 1 9.5 9 19.5 
8000 1 9.5 9.5 19 
